! Touchstone file generated by AntScopeKit
# MHz S RI R 50
! Format: Frequency S-real S-imaginary (normalized to 50 Ohm)
1 0.991354 -0.129571
1.338 0.984795 -0.165078
1.676 0.978555 -0.205987
2.014 0.968136 -0.250426
2.352 0.955568 -0.294772
2.69 0.944263 -0.329191
3.028 0.929691 -0.36834
3.366 0.917522 -0.397684
3.704 0.898484 -0.439005
4.042 0.878802 -0.477186
4.38 0.861445 -0.50785
4.718 0.837136 -0.546995
5.056 0.82151 -0.570195
5.394 0.790959 -0.611869
5.732 0.763631 -0.645653
6.07 0.742459 -0.669891
6.408 0.71198 -0.7022
6.746 0.681891 -0.731454
7.084 0.657288 -0.75364
7.422 0.622921 -0.782285
7.76 0.594221 -0.804302
8.098 0.559553 -0.828795
8.436 0.524494 -0.851414
8.774 0.489427 -0.872044
9.112 0.454903 -0.8874
9.45 0.417516 -0.903727
9.788 0.376807 -0.91631
10.126 0.333946 -0.92983
10.464 0.3021 -0.897813
10.802 0.258826 -0.943344
11.14 0.218343 -0.950487
11.478 0.177728 -0.94661
11.816 0.142565 -0.951425
12.154 0.104146 -0.94595
12.492 0.0587981 -0.947104
12.83 0.0209703 -0.94882
13.168 -0.0159755 -0.956752
13.506 -0.055191 -0.933767
13.844 -0.0843547 -0.92328
14.182 -0.118494 -0.917805
14.52 -0.151642 -0.910544
14.858 -0.184611 -0.898691
15.196 -0.216205 -0.888736
15.534 -0.24917 -0.879703
15.872 -0.26292 -0.845736
16.21 -0.311189 -0.859144
16.548 -0.346393 -0.857753
16.886 -0.372175 -0.835294
17.224 -0.407287 -0.822771
17.562 -0.437298 -0.809318
17.9 -0.463508 -0.786672
18.238 -0.498514 -0.774089
18.576 -0.534956 -0.744137
18.914 -0.553878 -0.726945
19.252 -0.580931 -0.705401
19.59 -0.617184 -0.68314
19.928 -0.642748 -0.64522
20.266 -0.670546 -0.629833
20.604 -0.695089 -0.601625
20.942 -0.717872 -0.57037
21.28 -0.75502 -0.541959
21.618 -0.760638 -0.509657
21.956 -0.783986 -0.473917
22.294 -0.8044 -0.443964
22.632 -0.823989 -0.39852
22.97 -0.842842 -0.373186
23.308 -0.859393 -0.33343
23.646 -0.874025 -0.300491
23.984 -0.908626 -0.247341
24.322 -0.895748 -0.217787
24.66 -0.900335 -0.182488
24.998 -0.90807 -0.141932
25.336 -0.913857 -0.109168
25.674 -0.914986 -0.0600515
26.012 -0.924108 -0.017272
26.35 -0.917872 0.0291826
26.688 -0.894073 0.0659808
27.026 -0.914984 0.10556
27.364 -0.906457 0.140087
27.702 -0.900408 0.180229
28.04 -0.897182 0.217549
28.378 -0.878165 0.254695
28.716 -0.869016 0.29839
29.054 -0.84932 0.329604
29.392 -0.850794 0.372018
29.73 -0.816818 0.39832
30.068 -0.796546 0.42433
30.406 -0.774854 0.458465
30.744 -0.755503 0.479886
31.082 -0.725411 0.513236
31.42 -0.700457 0.542213
31.758 -0.680137 0.566915
32.096 -0.677355 0.601547
32.434 -0.624774 0.614779
32.772 -0.596836 0.635892
33.11 -0.566901 0.653746
33.448 -0.53246 0.678211
33.786 -0.510785 0.693701
34.124 -0.479675 0.712529
34.462 -0.451207 0.728601
34.8 -0.443861 0.747994
35.138 -0.390891 0.753873
35.476 -0.359938 0.764172
35.814 -0.328222 0.778509
36.152 -0.301885 0.793553
36.49 -0.262198 0.801962
36.828 -0.235849 0.817421
37.166 -0.196904 0.81728
37.504 -0.144699 0.846471
37.842 -0.130197 0.83153
38.18 -0.0976957 0.831882
38.518 -0.0686809 0.837986
38.856 -0.034949 0.837094
39.194 0.00303396 0.842032
39.532 0.0360281 0.835583
39.87 0.069651 0.836763
40.208 0.085912 0.843592
40.546 0.133725 0.828297
40.884 0.172123 0.82793
41.222 0.205413 0.816656
41.56 0.232112 0.802993
41.898 0.266768 0.797953
42.236 0.300528 0.782268
42.574 0.335587 0.770707
42.912 0.339988 0.742461
43.25 0.389713 0.743082
43.588 0.421666 0.727597
43.926 0.447544 0.706416
44.264 0.474537 0.685389
44.602 0.50094 0.661753
44.94 0.523303 0.642807
45.278 0.547854 0.623854
45.616 0.545372 0.596084
45.954 0.588712 0.571971
46.292 0.611062 0.549487
46.63 0.628679 0.519953
46.968 0.652122 0.494163
47.306 0.668983 0.464406
47.644 0.687366 0.437009
47.982 0.703052 0.401885
48.32 0.701293 0.386052
48.658 0.725832 0.345357
48.996 0.736405 0.311633
49.334 0.749086 0.278938
49.672 0.760222 0.243701
50.01 0.763608 0.215967
50.348 0.775647 0.186055
50.686 0.777679 0.157194
51.024 0.761427 0.137013
51.362 0.788977 0.0983765
51.7 0.795427 0.0681968
52.038 0.798025 0.0383326
52.376 0.798498 0.0117961
52.714 0.797177 -0.0231108
53.052 0.79891 -0.0500972
53.39 0.794338 -0.08781
53.728 0.774104 -0.134956
54.066 0.780016 -0.155443
54.404 0.761814 -0.182604
54.742 0.7505 -0.216751
55.08 0.735079 -0.246547
55.418 0.715831 -0.268938
55.756 0.69947 -0.289862
56.094 0.678931 -0.31489
56.432 0.681915 -0.327901
56.77 0.638967 -0.361862
57.108 0.616589 -0.37691
57.446 0.595791 -0.397746
57.784 0.570456 -0.408491
58.122 0.548474 -0.429181
58.46 0.521455 -0.446867
58.798 0.501379 -0.461233
59.136 0.480609 -0.465715
59.474 0.449848 -0.495204
59.812 0.419832 -0.502834
60.15 0.391944 -0.517482
60.488 0.358873 -0.526195
60.826 0.335333 -0.531664
61.164 0.303301 -0.533842
61.502 0.280946 -0.541386
61.84 0.245983 -0.560364
62.178 0.222246 -0.546412
62.516 0.19164 -0.540436
62.854 0.165691 -0.536974
63.192 0.143622 -0.539612
63.53 0.120865 -0.521116
63.868 0.100362 -0.511157
64.206 0.0808786 -0.509123
64.544 0.0758654 -0.504346
64.882 0.042417 -0.495151
65.22 0.0211759 -0.480951
65.558 0.00512448 -0.471166
65.896 -0.0190098 -0.453643
66.234 -0.0302737 -0.440958
66.572 -0.0416522 -0.424416
66.91 -0.0494116 -0.408473
67.248 -0.0508679 -0.388036
67.586 -0.0664273 -0.380449
67.924 -0.0760556 -0.362492
68.262 -0.0780682 -0.339485
68.6 -0.072578 -0.319795
68.938 -0.0665732 -0.300705
69.276 -0.0557244 -0.288985
69.614 -0.0434755 -0.279029
69.952 -0.0322 -0.27771
70.29 -0.00767654 -0.268737
70.628 0.0152587 -0.274767
70.966 0.0314625 -0.293147
71.304 0.0460284 -0.315926
71.642 0.0424792 -0.337862
71.98 0.0392884 -0.364344
72.318 0.026163 -0.381428
72.656 0.00478988 -0.393828
72.994 -0.00230418 -0.410731
73.332 -0.0177708 -0.423376
73.67 -0.032219 -0.432565
74.008 -0.0491511 -0.445675
74.346 -0.0601393 -0.451692
74.684 -0.0780605 -0.466895
75.022 -0.0997311 -0.475549
75.36 -0.120492 -0.500638
75.698 -0.157413 -0.494132
76.036 -0.188586 -0.492327
76.374 -0.218473 -0.489723
76.712 -0.242721 -0.482827
77.05 -0.2727 -0.479707
77.388 -0.296176 -0.466119
77.726 -0.323082 -0.458789
78.064 -0.354789 -0.451279
78.402 -0.365629 -0.431575
78.74 -0.383765 -0.420273
79.078 -0.396794 -0.404677
79.416 -0.411436 -0.390808
79.754 -0.429769 -0.382989
80.092 -0.448827 -0.365403
80.43 -0.467486 -0.352995
80.768 -0.484513 -0.352993
81.106 -0.505287 -0.31718
81.444 -0.520856 -0.29254
81.782 -0.537648 -0.270121
82.12 -0.545694 -0.241413
82.458 -0.547566 -0.221893
82.796 -0.547608 -0.206839
83.134 -0.554978 -0.189614
83.472 -0.557749 -0.190808
83.81 -0.574776 -0.161746
84.148 -0.587384 -0.148074
84.486 -0.606327 -0.128594
84.824 -0.626851 -0.10623
85.162 -0.635983 -0.0803839
85.5 -0.647614 -0.047102
85.838 -0.657057 -0.0236881
86.176 -0.670633 0.0201247
86.514 -0.666017 0.0371286
86.852 -0.669479 0.063403
87.19 -0.669685 0.0904295
87.528 -0.673247 0.126472
87.866 -0.667834 0.149598
88.204 -0.664606 0.180924
88.542 -0.660765 0.20184
88.88 -0.658635 0.219915
89.218 -0.649701 0.262301
89.556 -0.640037 0.2926
89.894 -0.628381 0.314153
90.232 -0.623291 0.349861
90.57 -0.603196 0.368141
90.908 -0.587275 0.395942
91.246 -0.567222 0.42054
91.584 -0.531889 0.432697
91.922 -0.527543 0.459605
92.26 -0.513272 0.476604
92.598 -0.489511 0.492922
92.936 -0.463654 0.516345
93.274 -0.445689 0.528277
93.612 -0.423219 0.541297
93.95 -0.400893 0.554648
94.288 -0.365612 0.557365
94.626 -0.346234 0.579699
94.964 -0.327781 0.591033
95.302 -0.299677 0.598055
95.64 -0.280202 0.606875
95.978 -0.247748 0.612525
96.316 -0.219076 0.621135
96.654 -0.196205 0.628248
96.992 -0.168857 0.620893
97.33 -0.144943 0.638619
97.668 -0.115827 0.639315
98.006 -0.0893021 0.641199
98.344 -0.0591924 0.646976
98.682 -0.0352327 0.646777
99.02 -0.00405941 0.646064
99.358 0.0217017 0.648633
99.696 0.0539421 0.638343
100.034 0.0772297 0.644567
100.372 0.104127 0.63537
100.71 0.13242 0.63433
101.048 0.157632 0.620766
101.386 0.186664 0.614776
101.724 0.208366 0.607595
102.062 0.23581 0.597514
102.4 0.269488 0.596213
102.738 0.280892 0.575281
103.076 0.305794 0.566072
103.414 0.323383 0.550534
103.752 0.344058 0.54252
104.09 0.360319 0.527904
104.428 0.377308 0.514456
104.766 0.397122 0.502512
105.104 0.402847 0.501129
105.442 0.434453 0.480415
105.78 0.454184 0.463221
106.118 0.4739 0.4534
106.456 0.487542 0.438291
106.794 0.50684 0.418667
107.132 0.523979 0.402171
107.47 0.537535 0.38586
107.808 0.537566 0.366723
108.146 0.56383 0.35588
108.484 0.582657 0.336243
108.822 0.592365 0.321772
109.16 0.60617 0.301547
109.498 0.622401 0.2821
109.836 0.637319 0.264135
110.174 0.646037 0.241877
110.512 0.671798 0.227107
110.85 0.673725 0.198215
111.188 0.679123 0.178458
111.526 0.692513 0.150307
111.864 0.70328 0.127836
112.202 0.709626 0.100157
112.54 0.712377 0.075897
112.878 0.723013 0.0472155
113.216 0.716699 0.0352137
113.554 0.724854 -0.00897914
113.892 0.728404 -0.0358385
114.23 0.73387 -0.0572682
114.568 0.731456 -0.0888707
114.906 0.73276 -0.113369
115.244 0.731923 -0.141942
115.582 0.735018 -0.171717
115.92 0.716182 -0.193863
116.258 0.719573 -0.226345
116.596 0.716833 -0.258463
116.934 0.702478 -0.286224
117.272 0.693563 -0.316924
117.61 0.676337 -0.342253
117.948 0.663456 -0.361921
118.286 0.651546 -0.390638
118.624 0.640009 -0.399218
118.962 0.615633 -0.4334
119.3 0.598295 -0.457204
119.638 0.571134 -0.482713
119.976 0.557262 -0.496317
120.314 0.530733 -0.519352
120.652 0.503963 -0.536221
120.99 0.486696 -0.555943
121.328 0.451926 -0.554226
121.666 0.434655 -0.596641
122.004 0.405624 -0.600441
122.342 0.380403 -0.60699
122.68 0.356343 -0.616752
123.018 0.333327 -0.631898
123.356 0.301451 -0.639281
123.694 0.276782 -0.651151
124.032 0.249659 -0.668275
124.37 0.215076 -0.664444
124.708 0.180329 -0.668891
125.046 0.15708 -0.674222
125.384 0.124617 -0.689138
125.722 0.0946742 -0.677493
126.06 0.071292 -0.684213
126.398 0.0382103 -0.678065
126.736 0.00900471 -0.66843
127.074 -0.0191654 -0.678359
127.412 -0.0467679 -0.673071
127.75 -0.0772057 -0.668502
128.088 -0.104451 -0.667929
128.426 -0.135225 -0.660446
128.764 -0.165286 -0.653541
129.102 -0.184714 -0.643502
129.44 -0.205509 -0.64469
129.778 -0.241589 -0.625567
130.116 -0.268306 -0.615217
130.454 -0.298215 -0.602084
130.792 -0.321027 -0.579041
131.13 -0.347646 -0.575626
131.468 -0.368721 -0.555405
131.806 -0.39704 -0.539261
132.144 -0.423776 -0.51168
132.482 -0.444019 -0.507241
132.82 -0.456526 -0.479991
133.158 -0.48065 -0.461682
133.496 -0.498667 -0.442638
133.834 -0.521574 -0.425448
134.172 -0.53475 -0.405932
134.51 -0.554016 -0.379366
134.848 -0.550139 -0.354874
135.186 -0.571648 -0.33335
135.524 -0.590681 -0.310385
135.862 -0.602136 -0.286355
136.2 -0.612836 -0.255216
136.538 -0.624704 -0.231927
136.876 -0.634445 -0.204256
137.214 -0.640317 -0.177916
137.552 -0.648231 -0.141899
137.89 -0.6465 -0.118434
138.228 -0.648979 -0.093815
138.566 -0.656546 -0.0641509
138.904 -0.650499 -0.0453509
139.242 -0.660768 -0.00854262
139.58 -0.65572 0.0178686
139.918 -0.653121 0.0495726
140.256 -0.640464 0.0742497
140.594 -0.646951 0.105478
140.932 -0.645954 0.135814
141.27 -0.63763 0.162172
141.608 -0.628715 0.189751
141.946 -0.622603 0.216901
142.284 -0.612336 0.249021
142.622 -0.606602 0.273221
142.96 -0.585363 0.304301
143.298 -0.587262 0.334779
143.636 -0.570839 0.358944
143.974 -0.55892 0.388673
144.312 -0.54063 0.413145
144.65 -0.533745 0.437929
144.988 -0.51939 0.468112
145.326 -0.502166 0.493157
145.664 -0.48418 0.504838
146.002 -0.467272 0.538306
146.34 -0.443191 0.569998
146.678 -0.429863 0.588324
147.016 -0.410368 0.603418
147.354 -0.392629 0.627255
147.692 -0.363001 0.651204
148.03 -0.346626 0.670054
148.368 -0.320666 0.702342
148.706 -0.300529 0.709324
149.044 -0.283691 0.712351
149.382 -0.257557 0.735956
149.72 -0.229626 0.754076
150.058 -0.209128 0.765353
150.396 -0.173398 0.779584
150.734 -0.147182 0.786756
151.072 -0.131327 0.795131
151.41 -0.0978421 0.806438
151.748 -0.0564499 0.809256
152.086 -0.0372816 0.814478
152.424 -0.00227754 0.815397
152.762 0.0279917 0.814782
153.1 0.0546117 0.812015
153.438 0.0924526 0.810172
153.776 0.110509 0.823217
154.114 0.140608 0.797606
154.452 0.174099 0.790996
154.79 0.195459 0.781176
155.128 0.218357 0.764763
155.466 0.255985 0.757235
155.804 0.290199 0.745815
156.142 0.306722 0.728788
156.48 0.34531 0.715328
156.818 0.3612 0.698382
157.156 0.385074 0.675233
157.494 0.408168 0.657796
157.832 0.427463 0.630607
158.17 0.44603 0.610009
158.508 0.475317 0.587337
158.846 0.48724 0.560686
159.184 0.51128 0.539291
159.522 0.52577 0.515188
159.86 0.54712 0.482057
160.198 0.559212 0.465002
160.536 0.570855 0.433859
160.874 0.580992 0.40709
161.212 0.599708 0.377485
161.55 0.601049 0.337732
161.888 0.628064 0.316906
162.226 0.622376 0.281787
162.564 0.629778 0.255658
162.902 0.628643 0.22621
163.24 0.643896 0.194884
163.578 0.64356 0.166821
163.916 0.646813 0.136774
164.254 0.647553 0.102408
164.592 0.656612 0.0768147
164.93 0.637974 0.0292495
165.268 0.638097 0.00366767
165.606 0.640573 -0.0185222
165.944 0.632077 -0.0626307
166.282 0.622177 -0.0915193
166.62 0.618924 -0.128141
166.958 0.607975 -0.150587
167.296 0.61034 -0.173371
167.634 0.599016 -0.21286
167.972 0.58542 -0.24315
168.31 0.569804 -0.274103
168.648 0.56569 -0.291495
168.986 0.543059 -0.329615
169.324 0.528702 -0.357469
169.662 0.513702 -0.384808
170 0.498329 -0.405736
