! Touchstone file generated by AntScopeKit
# MHz S RI R 50
! Format: Frequency S-real S-imaginary (normalized to 50 Ohm)
1 -0.987508 0.0873327
1.058 -0.979705 0.0851644
1.116 -0.982525 0.0899349
1.174 -0.979634 0.0911126
1.232 -0.978986 0.0946127
1.29 -0.980358 0.100289
1.348 -0.977239 0.107472
1.406 -0.977219 0.110635
1.464 -0.978866 0.113641
1.522 -0.977496 0.117615
1.58 -0.978849 0.120733
1.638 -0.97653 0.124562
1.696 -0.971746 0.127591
1.754 -0.972954 0.132513
1.812 -0.971589 0.138056
1.87 -0.972225 0.143803
1.928 -0.973736 0.14162
1.986 -0.96986 0.150185
2.044 -0.96966 0.156196
2.102 -0.969104 0.160317
2.16 -0.967464 0.166022
2.218 -0.964377 0.168104
2.276 -0.966291 0.170189
2.334 -0.964493 0.175099
2.392 -0.96354 0.179102
2.45 -0.965282 0.181433
2.508 -0.962202 0.187692
2.566 -0.962402 0.188923
2.624 -0.940295 0.213958
2.682 -0.96151 0.20205
2.74 -0.958152 0.202859
2.798 -0.955783 0.206759
2.856 -0.955135 0.210158
2.914 -0.958239 0.215507
2.972 -0.957492 0.218039
3.03 -0.952417 0.224263
3.088 -0.960921 0.227519
3.146 -0.952134 0.228866
3.204 -0.951335 0.235456
3.262 -0.951054 0.237048
3.32 -0.945658 0.240676
3.378 -0.948381 0.247947
3.436 -0.943092 0.248596
3.494 -0.945092 0.254572
3.552 -0.946987 0.252431
3.61 -0.942644 0.262172
3.668 -0.940721 0.267187
3.726 -0.942612 0.268878
3.784 -0.944463 0.272221
3.842 -0.93699 0.277341
3.9 -0.937784 0.28188
3.958 -0.932286 0.285164
4.016 -0.926729 0.289727
4.074 -0.92985 0.291204
4.132 -0.932865 0.296469
4.19 -0.930219 0.300283
4.248 -0.926412 0.304512
4.306 -0.925915 0.309196
4.364 -0.925651 0.311441
4.422 -0.924647 0.316072
4.48 -0.917733 0.317821
4.538 -0.918861 0.317827
4.596 -0.919146 0.325394
4.654 -0.919621 0.333007
4.712 -0.919961 0.332603
4.77 -0.9169 0.339825
4.828 -0.917015 0.34222
4.886 -0.915799 0.34631
4.944 -0.930594 0.347979
5.002 -0.911236 0.347691
5.06 -0.909687 0.358619
5.118 -0.906948 0.355394
5.176 -0.907225 0.361872
5.234 -0.909487 0.365585
5.292 -0.899228 0.372575
5.35 -0.904035 0.375485
5.408 -0.904343 0.380275
5.466 -0.89934 0.380775
5.524 -0.895852 0.38507
5.582 -0.89741 0.385296
5.64 -0.890946 0.39337
5.698 -0.89302 0.396267
5.756 -0.885137 0.395259
5.814 -0.88751 0.399851
5.872 -0.891931 0.396759
5.93 -0.88328 0.407415
5.988 -0.883163 0.409249
6.046 -0.88363 0.413565
6.104 -0.880914 0.415378
6.162 -0.876274 0.421687
6.22 -0.880469 0.424448
6.278 -0.877474 0.426233
6.336 -0.878693 0.433465
6.394 -0.873111 0.434706
6.452 -0.869727 0.436957
6.51 -0.86827 0.437804
6.568 -0.870261 0.445449
6.626 -0.863941 0.451051
6.684 -0.860584 0.453016
6.742 -0.863467 0.456764
6.8 -0.852665 0.459424
6.858 -0.856115 0.462629
6.916 -0.857266 0.46893
6.974 -0.857872 0.472293
7.032 -0.854449 0.470345
7.09 -0.853065 0.477862
7.148 -0.845369 0.476793
7.206 -0.849833 0.478883
7.264 -0.840721 0.485359
7.322 -0.843361 0.489485
7.38 -0.83806 0.490282
7.438 -0.83783 0.492154
7.496 -0.835261 0.503394
7.554 -0.834212 0.504107
7.612 -0.832432 0.499734
7.67 -0.832924 0.510109
7.728 -0.847804 0.496664
7.786 -0.827242 0.510339
7.844 -0.824047 0.516769
7.902 -0.826073 0.519374
7.96 -0.824434 0.518338
8.018 -0.81782 0.52578
8.076 -0.814955 0.523206
8.134 -0.819003 0.532719
8.192 -0.837127 0.518896
8.25 -0.808793 0.536541
8.308 -0.805849 0.539269
8.366 -0.802179 0.544621
8.424 -0.804805 0.545533
8.482 -0.801661 0.547531
8.54 -0.801336 0.552224
8.598 -0.798686 0.555247
8.656 -0.777969 0.553665
8.714 -0.791793 0.56102
8.772 -0.792627 0.562777
8.83 -0.786583 0.566469
8.888 -0.785798 0.567498
8.946 -0.78292 0.574962
9.004 -0.782004 0.578452
9.062 -0.777666 0.580632
9.12 -0.801434 0.565363
9.178 -0.778898 0.585087
9.236 -0.77074 0.589516
9.294 -0.771984 0.590319
9.352 -0.769127 0.599313
9.41 -0.763439 0.595146
9.468 -0.761003 0.60365
9.526 -0.760982 0.600731
9.584 -0.795633 0.584566
9.642 -0.75745 0.607186
9.7 -0.754084 0.613019
9.758 -0.752178 0.615055
9.816 -0.748191 0.618955
9.874 -0.745708 0.621009
9.932 -0.744896 0.620003
9.99 -0.741118 0.620762
10.048 -0.750387 0.660224
10.106 -0.732377 0.630687
10.164 -0.731422 0.632483
10.222 -0.730672 0.636683
10.28 -0.727711 0.642304
10.338 -0.724105 0.642006
10.396 -0.722613 0.643139
10.454 -0.722661 0.648712
10.512 -0.721353 0.648103
10.57 -0.714507 0.653159
10.628 -0.71412 0.654382
10.686 -0.71218 0.658334
10.744 -0.701281 0.655982
10.802 -0.706981 0.662569
10.86 -0.703842 0.666953
10.918 -0.696563 0.669317
10.976 -0.70953 0.659214
11.034 -0.6964 0.670792
11.092 -0.692896 0.677923
11.15 -0.691149 0.676065
11.208 -0.686298 0.687325
11.266 -0.684826 0.684856
11.324 -0.680717 0.682404
11.382 -0.678301 0.68445
11.44 -0.719221 0.672597
11.498 -0.672498 0.69178
11.556 -0.671458 0.692239
11.614 -0.669212 0.699189
11.672 -0.665055 0.701998
11.73 -0.65789 0.69607
11.788 -0.665074 0.700563
11.846 -0.660364 0.706297
11.904 -0.662481 0.744639
11.962 -0.649495 0.70884
12.02 -0.647901 0.708161
12.078 -0.645839 0.713291
12.136 -0.642056 0.72966
12.194 -0.639999 0.721437
12.252 -0.63462 0.720361
12.31 -0.631131 0.722004
12.368 -0.64561 0.726941
12.426 -0.628626 0.734258
12.484 -0.627579 0.73306
12.542 -0.622451 0.736566
12.6 -0.618989 0.734257
12.658 -0.615756 0.741574
12.716 -0.614772 0.739605
12.774 -0.613735 0.745933
12.832 -0.614704 0.756608
12.89 -0.608114 0.742761
12.948 -0.603094 0.742511
13.006 -0.601062 0.75624
13.064 -0.600363 0.7569
13.122 -0.590145 0.754809
13.18 -0.588051 0.758176
13.238 -0.587263 0.759822
13.296 -0.597702 0.766384
13.354 -0.583836 0.763941
13.412 -0.576078 0.767821
13.47 -0.577062 0.77092
13.528 -0.572273 0.768722
13.586 -0.5737 0.771732
13.644 -0.563538 0.77335
13.702 -0.560395 0.778559
13.76 -0.589576 0.768204
13.818 -0.555592 0.78605
13.876 -0.558425 0.781331
13.934 -0.552771 0.785866
13.992 -0.556469 0.786725
14.05 -0.542649 0.787282
14.108 -0.544536 0.794646
14.166 -0.540926 0.789526
14.224 -0.549161 0.79671
14.282 -0.532249 0.795489
14.34 -0.525839 0.798371
14.398 -0.5246 0.800626
14.456 -0.523492 0.799573
14.514 -0.522513 0.801745
14.572 -0.517444 0.806215
14.63 -0.509836 0.808012
14.688 -0.498729 0.778277
14.746 -0.50421 0.808645
14.804 -0.503292 0.812925
14.862 -0.502187 0.813739
14.92 -0.499363 0.812765
14.978 -0.492681 0.816022
15.036 -0.492947 0.821986
15.094 -0.486584 0.820942
15.152 -0.493614 0.842678
15.21 -0.481454 0.825895
15.268 -0.47763 0.829379
15.326 -0.467683 0.833965
15.384 -0.463452 0.833761
15.442 -0.4707 0.828089
15.5 -0.464052 0.831367
15.558 -0.458574 0.831165
15.616 -0.480812 0.821824
15.674 -0.453023 0.841424
15.732 -0.452928 0.838801
15.79 -0.449742 0.836821
15.848 -0.453877 0.841021
15.906 -0.444703 0.847524
15.964 -0.436853 0.847948
16.022 -0.434647 0.849757
16.08 -0.408526 0.846449
16.138 -0.429178 0.848772
16.196 -0.429063 0.851123
16.254 -0.420393 0.855434
16.312 -0.414172 0.863213
16.37 -0.416437 0.854345
16.428 -0.410794 0.854384
16.486 -0.419985 0.874635
16.544 -0.382832 0.878372
16.602 -0.399269 0.8621
16.66 -0.395993 0.862742
16.718 -0.396056 0.86194
16.776 -0.388196 0.871875
16.834 -0.384994 0.869695
16.892 -0.381715 0.871023
16.95 -0.380214 0.872164
17.008 -0.33822 0.870539
17.066 -0.37387 0.873155
17.124 -0.369445 0.874441
17.182 -0.365543 0.877459
17.24 -0.365093 0.876483
17.298 -0.357048 0.874533
17.356 -0.354612 0.881974
17.414 -0.351024 0.882337
17.472 -0.332661 0.880383
17.53 -0.344685 0.884194
17.588 -0.33917 0.884247
17.646 -0.345285 0.883751
17.704 -0.334739 0.888506
17.762 -0.332379 0.888887
17.82 -0.328314 0.886464
17.878 -0.326556 0.895902
17.936 -0.315192 0.874567
17.994 -0.315057 0.894065
18.052 -0.311288 0.892777
18.11 -0.312012 0.890221
18.168 -0.303746 0.890644
18.226 -0.298172 0.897536
18.284 -0.301157 0.890795
18.342 -0.296114 0.894576
18.4 -0.29194 0.910949
18.458 -0.28838 0.899306
18.516 -0.286605 0.908171
18.574 -0.280168 0.906764
18.632 -0.276891 0.907249
18.69 -0.272273 0.904666
18.748 -0.273813 0.906935
18.806 -0.268168 0.906594
18.864 -0.285955 0.908749
18.922 -0.262231 0.90895
18.98 -0.254871 0.906972
19.038 -0.253132 0.910699
19.096 -0.244368 0.906381
19.154 -0.243046 0.910718
19.212 -0.248563 0.90935
19.27 -0.237217 0.909008
19.328 -0.246059 0.924343
19.386 -0.230313 0.913771
19.444 -0.224391 0.914099
19.502 -0.223568 0.919645
19.56 -0.217413 0.914065
19.618 -0.216701 0.919566
19.676 -0.216598 0.914476
19.734 -0.211992 0.918536
19.792 -0.212313 0.898005
19.85 -0.200301 0.921799
19.908 -0.199495 0.927285
19.966 -0.19618 0.918761
20.024 -0.199932 0.919259
20.082 -0.185668 0.919531
20.14 -0.183083 0.927994
20.198 -0.178104 0.922541
20.256 -0.172865 0.891065
20.314 -0.173081 0.922688
20.372 -0.169604 0.929856
20.43 -0.165205 0.927429
20.488 -0.161139 0.928098
20.546 -0.157046 0.929657
20.604 -0.156928 0.928042
20.662 -0.153281 0.927269
20.72 -0.155849 0.908574
20.778 -0.144983 0.929558
20.836 -0.143193 0.931599
20.894 -0.140409 0.924156
20.952 -0.12592 0.935792
21.01 -0.128564 0.92969
21.068 -0.12508 0.930989
21.126 -0.116069 0.929096
21.184 -0.127173 0.918711
21.242 -0.114617 0.931596
21.3 -0.105924 0.930381
21.358 -0.107144 0.931641
21.416 -0.100684 0.931589
21.474 -0.102279 0.934656
21.532 -0.103524 0.933631
21.59 -0.0877779 0.933727
21.648 -0.122282 0.941336
21.706 -0.0911518 0.933523
21.764 -0.083771 0.939757
21.822 -0.0766007 0.933296
21.88 -0.0770975 0.932839
21.938 -0.0709598 0.933443
21.996 -0.0667578 0.938289
22.054 -0.0643813 0.935022
22.112 -0.0473509 0.945334
22.17 -0.0577775 0.934266
22.228 -0.0544418 0.938285
22.286 -0.0480344 0.934489
22.344 -0.0508824 0.936359
22.402 -0.0417169 0.934825
22.46 -0.0447073 0.92714
22.518 -0.0421129 0.931613
22.576 -0.0270835 0.949751
22.634 -0.0262657 0.936229
22.692 -0.025528 0.939442
22.75 -0.0195004 0.942869
22.808 -0.0126881 0.944972
22.866 -0.0161828 0.940694
22.924 -0.0091525 0.939724
22.982 -0.00692547 0.94074
23.04 -0.0208525 0.94872
23.098 0.00493984 0.939161
23.156 0.00601406 0.937088
23.214 0.00877196 0.938877
23.272 0.00791053 0.94446
23.33 0.0176048 0.935642
23.388 0.0181047 0.936089
23.446 0.0224793 0.941642
23.504 0.00687292 0.919586
23.562 0.0304465 0.935502
23.62 0.0344575 0.938336
23.678 0.0351859 0.937263
23.736 0.0370762 0.933151
23.794 0.0465352 0.933574
23.852 0.0485494 0.942071
23.91 0.0496537 0.943206
23.968 0.0699898 0.955883
24.026 0.0588467 0.939388
24.084 0.0630829 0.941785
24.142 0.0666846 0.937935
24.2 0.0642189 0.936303
24.258 0.0712454 0.94323
24.316 0.0750217 0.938389
24.374 0.0802866 0.9339
24.432 0.0624619 0.947206
24.49 0.0903677 0.935095
24.548 0.0898449 0.938717
24.606 0.0945385 0.939034
24.664 0.0985029 0.931671
24.722 0.102923 0.93824
24.78 0.104534 0.932016
24.838 0.10649 0.935963
24.896 0.0849738 0.926622
24.954 0.118201 0.933155
25.012 0.1187 0.932856
25.07 0.126257 0.930486
25.128 0.131959 0.928473
25.186 0.128309 0.934132
25.244 0.129886 0.929705
25.302 0.138363 0.928101
25.36 0.164286 0.945116
25.418 0.144269 0.924954
25.476 0.148113 0.925047
25.534 0.152051 0.926407
25.592 0.163015 0.932271
25.65 0.157452 0.9258
25.708 0.16544 0.928801
25.766 0.166822 0.925395
25.824 0.162829 0.895857
25.882 0.173906 0.925906
25.94 0.175335 0.921783
25.998 0.179771 0.92788
26.056 0.177907 0.917233
26.114 0.186876 0.924512
26.172 0.186841 0.921747
26.23 0.196291 0.918484
26.288 0.216451 0.93086
26.346 0.198692 0.918433
26.404 0.205265 0.921137
26.462 0.206012 0.917181
26.52 0.201168 0.913508
26.578 0.208569 0.916932
26.636 0.219071 0.914369
26.694 0.222189 0.91437
26.752 0.217649 0.887638
26.81 0.229405 0.912375
26.868 0.228972 0.913367
26.926 0.233372 0.912825
26.984 0.233846 0.90971
27.042 0.240715 0.912906
27.1 0.246288 0.911746
27.158 0.249059 0.908128
27.216 0.264446 0.915266
27.274 0.25238 0.903464
27.332 0.257291 0.913303
27.39 0.254737 0.902961
27.448 0.263938 0.902762
27.506 0.262995 0.899904
27.564 0.272842 0.901848
27.622 0.277291 0.900994
27.68 0.245998 0.908637
27.738 0.278685 0.896188
27.796 0.282688 0.900629
27.854 0.284805 0.896433
27.912 0.289936 0.891484
27.97 0.291658 0.893661
28.028 0.29986 0.889919
28.086 0.300972 0.890903
28.144 0.294747 0.884309
28.202 0.306679 0.89125
28.26 0.308872 0.886803
28.318 0.310301 0.887154
28.376 0.311282 0.888156
28.434 0.290898 0.884151
28.492 0.318068 0.88818
28.55 0.328936 0.884998
28.608 0.297315 0.874821
28.666 0.329462 0.881009
28.724 0.338133 0.883059
28.782 0.338029 0.879476
28.84 0.345636 0.871959
28.898 0.348582 0.874531
28.956 0.350685 0.878453
29.014 0.355593 0.873488
29.072 0.338566 0.865821
29.13 0.356381 0.870181
29.188 0.360764 0.867959
29.246 0.363258 0.864084
29.304 0.361311 0.865273
29.362 0.371012 0.865891
29.42 0.369502 0.861185
29.478 0.374436 0.865883
29.536 0.379768 0.903842
29.594 0.380038 0.861961
29.652 0.387166 0.855747
29.71 0.387531 0.857763
29.768 0.389662 0.8524
29.826 0.394424 0.853258
29.884 0.398511 0.855328
29.942 0.401469 0.828948
30 0.420113 0.827187
