! Touchstone file generated by AntScopeKit
# MHz S RI R 50
! Format: Frequency S-real S-imaginary (normalized to 50 Ohm)
1 0.00687024 0.0101573
1.058 0.00774109 0.0108165
1.116 0.00735822 0.0113013
1.174 0.0081249 0.0104946
1.232 0.0078399 0.0113429
1.29 0.00733618 0.0119172
1.348 0.00877781 0.0121315
1.406 0.00912492 0.0131745
1.464 0.00957876 0.0127221
1.522 0.00936964 0.0132131
1.58 0.0106604 0.013471
1.638 0.00973926 0.013998
1.696 0.0101607 0.0150147
1.754 0.0102312 0.0144405
1.812 0.0103995 0.0144874
1.87 0.0101843 0.0158683
1.928 0.0111795 0.0156033
1.986 0.011707 0.0158986
2.044 0.0121685 0.0161796
2.102 0.0120423 0.0165215
2.16 0.0114822 0.0166231
2.218 0.0119344 0.0181815
2.276 0.0125337 0.0180542
2.334 0.0128329 0.0185395
2.392 0.0134621 0.0177144
2.45 0.0140402 0.0186571
2.508 0.0130126 0.0195732
2.566 0.0133993 0.0191099
2.624 0.0141851 0.0198168
2.682 0.0149965 0.0190652
2.74 0.0146314 0.0205107
2.798 0.0147894 0.0200016
2.856 0.0152998 0.0199064
2.914 0.0154095 0.0208983
2.972 0.015867 0.0210691
3.03 0.0158608 0.0207189
3.088 0.0162687 0.0212278
3.146 0.0171118 0.0205259
3.204 0.0169935 0.0209852
3.262 0.0175912 0.0224803
3.32 0.0168417 0.0227436
3.378 0.0178843 0.021574
3.436 0.0176159 0.023564
3.494 0.0180593 0.0227321
3.552 0.0183882 0.0222556
3.61 0.019384 0.023084
3.668 0.0194825 0.0241506
3.726 0.0206358 0.0242985
3.784 0.0208567 0.0238653
3.842 0.0202411 0.0252495
3.9 0.0212164 0.0247468
3.958 0.0216552 0.0243323
4.016 0.0220939 0.0242372
4.074 0.0224905 0.0254216
4.132 0.0215888 0.0252876
4.19 0.0231266 0.0254145
4.248 0.0221683 0.0256829
4.306 0.0232614 0.0249969
4.364 0.0235248 0.0255234
4.422 0.0231917 0.0257614
4.48 0.0239333 0.0255792
4.538 0.0242138 0.025291
4.596 0.0254527 0.0251712
4.654 0.0252992 0.0252418
4.712 0.0244153 0.0258844
4.77 0.024864 0.0256759
4.828 0.0258481 0.0268198
4.886 0.0262716 0.0270614
4.944 0.0261821 0.0266897
5.002 0.026211 0.0265548
5.06 0.0269637 0.0267838
5.118 0.0278305 0.0263745
5.176 0.0282048 0.0267626
5.234 0.0284083 0.0265644
5.292 0.0285416 0.0264215
5.35 0.0282291 0.0267473
5.408 0.0292821 0.0279091
5.466 0.0299169 0.0269855
5.524 0.0295455 0.0278957
5.582 0.0294225 0.0273451
5.64 0.0309219 0.0270938
5.698 0.0315351 0.0268815
5.756 0.0300315 0.0265359
5.814 0.0314115 0.027261
5.872 0.029903 0.027818
5.93 0.0319197 0.0281657
5.988 0.0331317 0.0286678
6.046 0.03262 0.0282285
6.104 0.0324372 0.0276924
6.162 0.0338553 0.0279495
6.22 0.0343301 0.0282983
6.278 0.0346974 0.0275538
6.336 0.034645 0.0291135
6.394 0.0345426 0.0291743
6.452 0.0348431 0.0280997
6.51 0.0362374 0.0273638
6.568 0.0361354 0.0278364
6.626 0.0365012 0.0282286
6.684 0.0352124 0.0272986
6.742 0.0360356 0.0274641
6.8 0.0368518 0.0278088
6.858 0.03788 0.0275597
6.916 0.0375661 0.0281615
6.974 0.0390146 0.0284269
7.032 0.0374601 0.0267972
7.09 0.0388029 0.027959
7.148 0.0388906 0.0279362
7.206 0.0393251 0.0274456
7.264 0.0393257 0.0283369
7.322 0.0410906 0.0278984
7.38 0.0419161 0.0281876
7.438 0.0401635 0.0273352
7.496 0.0412719 0.0274585
7.554 0.0407084 0.0267072
7.612 0.0415586 0.0275626
7.67 0.0421705 0.0287285
7.728 0.0424918 0.0277431
7.786 0.0418312 0.0279622
7.844 0.0419649 0.0274187
7.902 0.0429029 0.027638
7.96 0.0423158 0.0266784
8.018 0.0435562 0.0255851
8.076 0.0428423 0.0291185
8.134 0.0434437 0.0263395
8.192 0.0461211 0.0270422
8.25 0.0458544 0.0263403
8.308 0.0453065 0.0269821
8.366 0.0456612 0.026918
8.424 0.0450477 0.0266273
8.482 0.0457062 0.0262677
8.54 0.0462557 0.02601
8.598 0.0456201 0.0260389
8.656 0.046079 0.0265552
8.714 0.0475382 0.0249765
8.772 0.0480452 0.0255899
8.83 0.0481092 0.025152
8.888 0.0477539 0.0248913
8.946 0.0480142 0.0246265
9.004 0.0487739 0.0246456
9.062 0.0496402 0.0242035
9.12 0.0491795 0.0235124
9.178 0.0501395 0.0239633
9.236 0.0502653 0.0242446
9.294 0.0512728 0.0237668
9.352 0.0506137 0.0252281
9.41 0.0518675 0.0242798
9.468 0.05155 0.0234329
9.526 0.0522474 0.0237006
9.584 0.0510159 0.0241477
9.642 0.052437 0.0232496
9.7 0.0524899 0.0232918
9.758 0.0523357 0.0233134
9.816 0.0525481 0.022443
9.874 0.0530891 0.0232481
9.932 0.0528449 0.0221351
9.99 0.0533814 0.022573
10.048 0.0534442 0.0221188
10.106 0.0546379 0.0226542
10.164 0.0546483 0.0216154
10.222 0.0541819 0.0210414
10.28 0.05457 0.0213279
10.338 0.0534872 0.0213432
10.396 0.0545988 0.0214724
10.454 0.0548407 0.0209151
10.512 0.0556102 0.0194615
10.57 0.0560607 0.0197734
10.628 0.0558627 0.0195816
10.686 0.0565351 0.0197211
10.744 0.0568264 0.0196684
10.802 0.0557092 0.0198783
10.86 0.0569276 0.0198378
10.918 0.0578239 0.0193104
10.976 0.0554974 0.0208612
11.034 0.0573499 0.019461
11.092 0.0583941 0.0190063
11.15 0.0581218 0.0187278
11.208 0.0592348 0.0176682
11.266 0.0572026 0.0180402
11.324 0.0594444 0.0175734
11.382 0.0603501 0.0177397
11.44 0.0591416 0.0170219
11.498 0.0603018 0.0162213
11.556 0.0590778 0.0170246
11.614 0.0603003 0.0175775
11.672 0.0601609 0.0161921
11.73 0.0583758 0.0152525
11.788 0.0602822 0.0164996
11.846 0.059781 0.0159456
11.904 0.0598499 0.0168633
11.962 0.0601951 0.0152742
12.02 0.0603347 0.0127822
12.078 0.0610986 0.0150013
12.136 0.0614283 0.0152877
12.194 0.061162 0.0137421
12.252 0.0606125 0.0131437
12.31 0.0613931 0.0123182
12.368 0.060809 0.013037
12.426 0.0630512 0.0116356
12.484 0.0613843 0.0126747
12.542 0.0635255 0.0120671
12.6 0.062598 0.0125339
12.658 0.0622183 0.0115658
12.716 0.06237 0.0120289
12.774 0.0625939 0.0109567
12.832 0.0647391 0.0109268
12.89 0.0620208 0.0102779
12.948 0.0629054 0.0105732
13.006 0.0636322 0.0114904
13.064 0.0629856 0.00991154
13.122 0.0637571 0.00912703
13.18 0.0632548 0.00985418
13.238 0.0629777 0.00941218
13.296 0.0629883 0.00702307
13.354 0.0638366 0.00949379
13.412 0.0640563 0.00700497
13.47 0.0638181 0.00830348
13.528 0.0646736 0.00765146
13.586 0.0646863 0.00755034
13.644 0.0641422 0.00697771
13.702 0.0644201 0.00680735
13.76 0.0630079 0.0069738
13.818 0.0659025 0.00569624
13.876 0.0651038 0.0051632
13.934 0.0649845 0.00653336
13.992 0.0647206 0.00472937
14.05 0.0641104 0.00466045
14.108 0.0650752 0.00362663
14.166 0.0651391 0.0035073
14.224 0.0651274 0.00481658
14.282 0.0655104 0.00437022
14.34 0.065419 0.00392447
14.398 0.0652315 0.00346638
14.456 0.0664993 0.00286509
14.514 0.0659895 0.0035624
14.572 0.0653831 0.00212611
14.63 0.0654841 0.00115973
14.688 0.0657262 -0.000178002
14.746 0.0656659 0.000312844
14.804 0.0656827 0.00151649
14.862 0.0651804 0.000911092
14.92 0.0654027 -0.000112208
14.978 0.0652467 -0.000744885
15.036 0.0660743 9.37133e-5
15.094 0.0649855 -0.00109569
15.152 0.0664233 -0.000484436
15.21 0.0655181 -0.00113927
15.268 0.0651943 -0.0014268
15.326 0.0654837 -0.00225292
15.384 0.0663304 -0.00349298
15.442 0.0645298 -0.002166
15.5 0.0659323 -0.00337066
15.558 0.0641293 -0.00263636
15.616 0.0646501 -0.00551337
15.674 0.0652019 -0.00489624
15.732 0.0648608 -0.00509404
15.79 0.0647739 -0.00494501
15.848 0.0647368 -0.00599158
15.906 0.0645865 -0.00577864
15.964 0.0654578 -0.00458484
16.022 0.0659112 -0.00640139
16.08 0.0665978 -0.00637218
16.138 0.06551 -0.00658004
16.196 0.0647823 -0.00682281
16.254 0.0649639 -0.00818685
16.312 0.0649869 -0.00782581
16.37 0.0657685 -0.00862577
16.428 0.0647853 -0.0084283
16.486 0.0658271 -0.00975627
16.544 0.0670189 -0.0100057
16.602 0.0643052 -0.00969148
16.66 0.0641152 -0.00962285
16.718 0.0637295 -0.00994713
16.776 0.0646403 -0.0104593
16.834 0.0645726 -0.0101305
16.892 0.0644531 -0.0101641
16.95 0.0645137 -0.0109578
17.008 0.0635958 -0.0116294
17.066 0.0638499 -0.0117534
17.124 0.0636966 -0.012558
17.182 0.0626627 -0.0121694
17.24 0.0627325 -0.0122652
17.298 0.0625277 -0.0130729
17.356 0.0628588 -0.0125747
17.414 0.0635014 -0.0124358
17.472 0.0645144 -0.0148999
17.53 0.0631585 -0.0147186
17.588 0.0619931 -0.013932
17.646 0.0632106 -0.0146547
17.704 0.0624854 -0.0142866
17.762 0.0620921 -0.0155853
17.82 0.0630023 -0.0152055
17.878 0.0624257 -0.0157802
17.936 0.0607742 -0.0143552
17.994 0.0621483 -0.0165819
18.052 0.0622051 -0.0168557
18.11 0.0612536 -0.0163133
18.168 0.0609216 -0.0163971
18.226 0.0602453 -0.0179583
18.284 0.060986 -0.0175273
18.342 0.060258 -0.0177816
18.4 0.0603886 -0.0195224
18.458 0.0609709 -0.0185319
18.516 0.0599578 -0.0177574
18.574 0.0599433 -0.0187692
18.632 0.0603119 -0.0192097
18.69 0.0598085 -0.0197544
18.748 0.0604967 -0.0195376
18.806 0.059184 -0.0194985
18.864 0.0573146 -0.0205112
18.922 0.0585582 -0.0205084
18.98 0.0586564 -0.0204943
19.038 0.0588731 -0.0215185
19.096 0.0581665 -0.0212936
19.154 0.0578205 -0.0203204
19.212 0.0571613 -0.0224867
19.27 0.0585991 -0.0216252
19.328 0.0567544 -0.0224657
19.386 0.0570938 -0.0213863
19.444 0.0582385 -0.021935
19.502 0.0575306 -0.0231876
19.56 0.0569809 -0.0233181
19.618 0.0562901 -0.0235844
19.676 0.0558224 -0.023385
19.734 0.0558069 -0.0239784
19.792 0.0558566 -0.0241974
19.85 0.0551028 -0.0238518
19.908 0.0550626 -0.0236449
19.966 0.054312 -0.0239876
20.024 0.054349 -0.0249101
20.082 0.0549 -0.0251854
20.14 0.054143 -0.0248335
20.198 0.054098 -0.0243719
20.256 0.0526144 -0.0249949
20.314 0.0530243 -0.0251047
20.372 0.0535021 -0.0250726
20.43 0.0529929 -0.024288
20.488 0.0537294 -0.0255089
20.546 0.0518236 -0.0252522
20.604 0.0520459 -0.0259576
20.662 0.0515113 -0.0266283
20.72 0.0539034 -0.0262805
20.778 0.051577 -0.0260422
20.836 0.050839 -0.0266461
20.894 0.0500555 -0.0272901
20.952 0.0495431 -0.0269703
21.01 0.0509197 -0.0274979
21.068 0.0500158 -0.0281129
21.126 0.0504469 -0.0274273
21.184 0.0504787 -0.0289222
21.242 0.049267 -0.0286193
21.3 0.0495236 -0.0281569
21.358 0.0486687 -0.0285063
21.416 0.0469743 -0.0276587
21.474 0.0469313 -0.0283559
21.532 0.0474349 -0.0280473
21.59 0.0470561 -0.0278097
21.648 0.0476448 -0.0288334
21.706 0.0474152 -0.0298765
21.764 0.0460692 -0.0283785
21.822 0.0455978 -0.0294048
21.88 0.04561 -0.0290309
21.938 0.0442871 -0.029549
21.996 0.04593 -0.0295333
22.054 0.043733 -0.0292451
22.112 0.0437697 -0.0304928
22.17 0.0434653 -0.0286208
22.228 0.04315 -0.030783
22.286 0.0429435 -0.0291243
22.344 0.042656 -0.0298879
22.402 0.0430979 -0.0300819
22.46 0.0429534 -0.0298256
22.518 0.0425619 -0.0303196
22.576 0.0396168 -0.0294847
22.634 0.0416406 -0.0301598
22.692 0.0404115 -0.0312238
22.75 0.0403886 -0.0298046
22.808 0.0402813 -0.0292551
22.866 0.0394584 -0.0302912
22.924 0.0393063 -0.0310176
22.982 0.0397158 -0.0307684
23.04 0.0386206 -0.0292306
23.098 0.0386604 -0.0306424
23.156 0.0377155 -0.0300119
23.214 0.0383341 -0.0312886
23.272 0.0375425 -0.030413
23.33 0.0371456 -0.0307908
23.388 0.0375042 -0.0310204
23.446 0.0365269 -0.0316047
23.504 0.0358825 -0.0313693
23.562 0.0360947 -0.0310681
23.62 0.0350719 -0.0310309
23.678 0.0350596 -0.0312283
23.736 0.0351738 -0.0311277
23.794 0.0340578 -0.0316579
23.852 0.0333805 -0.0313385
23.91 0.0334445 -0.0303026
23.968 0.0328924 -0.0314585
24.026 0.0330571 -0.0310426
24.084 0.0331922 -0.0301694
24.142 0.032338 -0.031051
24.2 0.0323279 -0.0322148
24.258 0.0302782 -0.0300627
24.316 0.0303965 -0.0313081
24.374 0.0306603 -0.0309036
24.432 0.0293969 -0.0290599
24.49 0.0301961 -0.0301426
24.548 0.0296778 -0.031165
24.606 0.0276189 -0.0299122
24.664 0.0295893 -0.0302427
24.722 0.0288937 -0.0300068
24.78 0.0290952 -0.030475
24.838 0.0290142 -0.030588
24.896 0.0267665 -0.0284786
24.954 0.0265274 -0.0294121
25.012 0.0275915 -0.0298047
25.07 0.0271789 -0.0288063
25.128 0.0259698 -0.028868
25.186 0.0248556 -0.0305672
25.244 0.0252352 -0.0296043
25.302 0.0251188 -0.0294734
25.36 0.0263041 -0.0287783
25.418 0.0260043 -0.0294528
25.476 0.0242541 -0.0291977
25.534 0.0237379 -0.0302933
25.592 0.023793 -0.0292778
25.65 0.023271 -0.0294468
25.708 0.0234254 -0.029039
25.766 0.0235416 -0.0280312
25.824 0.02156 -0.0288353
25.882 0.0219882 -0.0284201
25.94 0.0219662 -0.0286799
25.998 0.0209857 -0.0279727
26.056 0.0211839 -0.0280606
26.114 0.0211405 -0.0278152
26.172 0.0213934 -0.0276929
26.23 0.0207627 -0.0271238
26.288 0.0215624 -0.026469
26.346 0.020146 -0.026966
26.404 0.0190855 -0.0276744
26.462 0.0180731 -0.0267019
26.52 0.0191236 -0.0271031
26.578 0.0190082 -0.026906
26.636 0.0179919 -0.0264987
26.694 0.0176367 -0.0270429
26.752 0.015878 -0.0269964
26.81 0.0167571 -0.0262164
26.868 0.0165571 -0.0257075
26.926 0.0170142 -0.0261366
26.984 0.016179 -0.0252111
27.042 0.0164106 -0.0254881
27.1 0.0163184 -0.0251311
27.158 0.0150263 -0.0242888
27.216 0.0161155 -0.0241197
27.274 0.0151311 -0.0243072
27.332 0.0142607 -0.0245472
27.39 0.0141614 -0.0241914
27.448 0.0151052 -0.0257912
27.506 0.0130509 -0.0264546
27.564 0.0141707 -0.0239577
27.622 0.0140146 -0.0247849
27.68 0.0171227 -0.0216467
27.738 0.0129065 -0.0225752
27.796 0.0121005 -0.0215805
27.854 0.0114787 -0.0222685
27.912 0.0118849 -0.0217095
27.97 0.0118932 -0.0219207
28.028 0.0110261 -0.0212202
28.086 0.0114975 -0.0208708
28.144 0.0112933 -0.0207257
28.202 0.010175 -0.0208927
28.26 0.0107571 -0.0204728
28.318 0.0105951 -0.0194592
28.376 0.010377 -0.019354
28.434 0.00804535 -0.0201222
28.492 0.00916589 -0.0204609
28.55 0.00949884 -0.0187994
28.608 0.0108066 -0.0190434
28.666 0.00893659 -0.0180709
28.724 0.00874957 -0.0177182
28.782 0.00858514 -0.0171727
28.84 0.00806187 -0.0186174
28.898 0.00830751 -0.0174967
28.956 0.00708498 -0.0176477
29.014 0.00814735 -0.0178369
29.072 0.00724417 -0.0193365
29.13 0.00741128 -0.0162284
29.188 0.00689289 -0.0161379
29.246 0.00696142 -0.0151907
29.304 0.00668372 -0.0157638
29.362 0.00696831 -0.0153494
29.42 0.00549295 -0.0149596
29.478 0.00525859 -0.0137512
29.536 0.00544402 -0.0138759
29.594 0.00514834 -0.013368
29.652 0.005394 -0.0136347
29.71 0.00483521 -0.0137407
29.768 0.00510495 -0.0133737
29.826 0.00533739 -0.0130454
29.884 0.00462247 -0.0124238
29.942 0.00478852 -0.0122014
30 0.00608531 -0.0119207
