! Touchstone file generated by AntScopeKit
# MHz S RI R 50
! Format: Frequency S-real S-imaginary (normalized to 50 Ohm)
1 0.983833 -0.13028
1.338 0.985764 -0.168134
1.676 0.978093 -0.208171
2.014 0.967037 -0.250504
2.352 0.955479 -0.29506
2.69 0.943495 -0.331387
3.028 0.928866 -0.370415
3.366 0.916518 -0.399993
3.704 0.898064 -0.439864
4.042 0.877603 -0.479388
4.38 0.858271 -0.513197
4.718 0.837137 -0.546993
5.056 0.815526 -0.55519
5.394 0.791418 -0.611276
5.732 0.765591 -0.643328
6.07 0.739794 -0.672834
6.408 0.71371 -0.700442
6.746 0.685398 -0.728169
7.084 0.653411 -0.757004
7.422 0.622173 -0.782879
7.76 0.58446 -0.811423
8.098 0.554655 -0.83208
8.436 0.525685 -0.850679
8.774 0.484412 -0.87484
9.112 0.456001 -0.889979
9.45 0.414586 -0.905403
9.788 0.374412 -0.915394
10.126 0.335778 -0.930797
10.464 0.29613 -0.931024
10.802 0.254143 -0.948023
11.14 0.213448 -0.953021
11.478 0.176848 -0.955499
11.816 0.136422 -0.949183
12.154 0.0982325 -0.953081
12.492 0.0606075 -0.949242
12.83 0.0201352 -0.946752
13.168 -0.0337132 -0.942888
13.506 -0.0591598 -0.936302
13.844 -0.0927882 -0.927713
14.182 -0.125172 -0.92002
14.52 -0.155128 -0.912213
14.858 -0.189352 -0.900088
15.196 -0.221779 -0.893502
15.534 -0.257877 -0.878886
15.872 -0.256997 -0.895603
16.21 -0.31203 -0.856453
16.548 -0.353804 -0.853875
16.886 -0.37877 -0.830167
17.224 -0.405813 -0.818691
17.562 -0.439039 -0.804038
17.9 -0.467107 -0.782203
18.238 -0.496828 -0.767473
18.576 -0.518365 -0.771476
18.914 -0.557424 -0.726246
19.252 -0.585033 -0.703773
19.59 -0.609835 -0.682399
19.928 -0.639072 -0.65506
20.266 -0.669996 -0.627937
20.604 -0.69192 -0.602529
20.942 -0.718627 -0.565767
21.28 -0.717661 -0.523653
21.618 -0.760969 -0.510115
21.956 -0.78691 -0.474888
22.294 -0.807702 -0.443437
22.632 -0.828453 -0.411768
22.97 -0.838494 -0.375721
23.308 -0.85916 -0.336108
23.646 -0.86971 -0.306841
23.984 -0.869571 -0.24072
24.322 -0.895099 -0.224742
24.66 -0.89938 -0.185242
24.998 -0.908304 -0.141802
25.336 -0.915111 -0.0977088
25.674 -0.919334 -0.0642863
26.012 -0.919536 -0.0192424
26.35 -0.921837 0.0204559
26.688 -0.914395 0.0355417
27.026 -0.919074 0.102928
27.364 -0.913992 0.142353
27.702 -0.904005 0.180261
28.04 -0.887893 0.213654
28.378 -0.88372 0.256654
28.716 -0.874356 0.294009
29.054 -0.854716 0.33182
29.392 -0.819634 0.383164
29.73 -0.818014 0.397784
30.068 -0.79534 0.426159
30.406 -0.776411 0.459561
30.744 -0.75176 0.499525
31.082 -0.728202 0.514852
31.42 -0.704826 0.543721
31.758 -0.676185 0.568728
32.096 -0.630383 0.582436
32.434 -0.625332 0.617004
32.772 -0.597198 0.640981
33.11 -0.566097 0.660066
33.448 -0.532518 0.677346
33.786 -0.506015 0.69584
34.124 -0.481699 0.714281
34.462 -0.45348 0.730055
34.8 -0.434148 0.76019
35.138 -0.392844 0.757394
35.476 -0.358508 0.766698
35.814 -0.333442 0.781918
36.152 -0.292967 0.798576
36.49 -0.266127 0.803144
36.828 -0.2337 0.808318
37.166 -0.194831 0.8238
37.504 -0.153582 0.850208
37.842 -0.129792 0.834673
38.18 -0.0954044 0.837077
38.518 -0.0648648 0.839229
38.856 -0.0250253 0.845525
39.194 0.0011885 0.840518
39.532 0.0367586 0.847025
39.87 0.0678016 0.837982
40.208 0.0856589 0.820212
40.546 0.138082 0.831536
40.884 0.17161 0.823733
41.222 0.206582 0.819059
41.56 0.238725 0.808758
41.898 0.266545 0.798772
42.236 0.303202 0.788676
42.574 0.326393 0.773226
42.912 0.386095 0.772775
43.25 0.391219 0.744642
43.588 0.420095 0.724166
43.926 0.44697 0.711648
44.264 0.472084 0.693552
44.602 0.497339 0.671574
44.94 0.522862 0.646279
45.278 0.549393 0.629195
45.616 0.562173 0.620937
45.954 0.592669 0.583149
46.292 0.613179 0.553523
46.63 0.644632 0.535844
46.968 0.657463 0.506908
47.306 0.682119 0.478362
47.644 0.702938 0.452519
47.982 0.717172 0.414626
48.32 0.743074 0.411635
48.658 0.749597 0.355984
48.996 0.756556 0.317222
49.334 0.773038 0.29102
49.672 0.78819 0.251798
50.01 0.796338 0.219183
50.348 0.813992 0.194373
50.686 0.815747 0.154661
51.024 0.811855 0.0958944
51.362 0.833072 0.089423
51.7 0.827659 0.0497654
52.038 0.835638 0.0172059
52.376 0.840724 -0.020978
52.714 0.832589 -0.0540082
53.052 0.831673 -0.091306
53.39 0.821455 -0.123981
53.728 0.78901 -0.17109
54.066 0.808097 -0.18738
54.404 0.791216 -0.233453
54.742 0.783875 -0.262261
55.08 0.765838 -0.287146
55.418 0.743627 -0.328364
55.756 0.719697 -0.356008
56.094 0.704771 -0.385162
56.432 0.65511 -0.423521
56.77 0.65108 -0.443803
57.108 0.624982 -0.466164
57.446 0.589239 -0.499368
57.784 0.560446 -0.520284
58.122 0.522949 -0.543509
58.46 0.485321 -0.560554
58.798 0.440229 -0.580851
59.136 0.401036 -0.612823
59.474 0.354337 -0.607973
59.812 0.309093 -0.609028
60.15 0.264131 -0.617731
60.488 0.216553 -0.622657
60.826 0.172058 -0.611994
61.164 0.127665 -0.600986
61.502 0.0881297 -0.585049
61.84 0.0341885 -0.553514
62.178 0.0107112 -0.546879
62.516 -0.0281268 -0.519136
62.854 -0.0618307 -0.489747
63.192 -0.0869999 -0.459113
63.53 -0.10754 -0.419013
63.868 -0.11875 -0.383345
64.206 -0.126065 -0.344303
64.544 -0.137803 -0.320725
64.882 -0.129246 -0.280697
65.22 -0.127397 -0.249599
65.558 -0.125574 -0.222093
65.896 -0.119634 -0.190575
66.234 -0.111898 -0.155162
66.572 -0.0967686 -0.116938
66.91 -0.0682407 -0.0793019
67.248 -0.0256619 -0.0457977
67.586 0.0215401 -0.0273984
67.924 0.0738198 -0.0206014
68.262 0.123754 -0.0278847
68.6 0.168533 -0.0471364
68.938 0.209786 -0.0721211
69.276 0.247867 -0.105754
69.614 0.272565 -0.140152
69.952 0.295904 -0.168464
70.29 0.315722 -0.220147
70.628 0.326545 -0.264973
70.966 0.327225 -0.31553
71.304 0.314264 -0.365764
71.642 0.303531 -0.408358
71.98 0.284341 -0.452603
72.318 0.260973 -0.494379
72.656 0.23486 -0.549056
72.994 0.188492 -0.562884
73.332 0.148288 -0.581844
73.67 0.111506 -0.600871
74.008 0.0792595 -0.61727
74.346 0.0410296 -0.624925
74.684 -0.00207503 -0.634501
75.022 -0.0379091 -0.644433
75.36 -0.0702368 -0.63079
75.698 -0.115313 -0.650644
76.036 -0.154194 -0.6505
76.374 -0.192234 -0.647604
76.712 -0.238822 -0.639721
77.05 -0.265939 -0.635333
77.388 -0.302655 -0.623209
77.726 -0.34098 -0.606345
78.064 -0.385462 -0.583374
78.402 -0.40232 -0.572606
78.74 -0.430124 -0.548216
79.078 -0.456842 -0.533614
79.416 -0.487197 -0.512985
79.754 -0.507153 -0.493878
80.092 -0.530777 -0.474291
80.43 -0.559632 -0.453148
80.768 -0.578444 -0.443433
81.106 -0.606158 -0.401592
81.444 -0.629839 -0.373111
81.782 -0.644047 -0.343234
82.12 -0.668471 -0.30965
82.458 -0.681814 -0.283989
82.796 -0.696667 -0.244889
83.134 -0.707662 -0.214979
83.472 -0.697196 -0.184142
83.81 -0.726535 -0.149917
84.148 -0.726167 -0.113698
84.486 -0.73451 -0.0776055
84.824 -0.728254 -0.0457584
85.162 -0.735929 -0.0139172
85.5 -0.733122 0.0247665
85.838 -0.733048 0.0518142
86.176 -0.722478 0.0671496
86.514 -0.72095 0.115904
86.852 -0.71691 0.139867
87.19 -0.7047 0.172623
87.528 -0.692722 0.194028
87.866 -0.685092 0.226905
88.204 -0.677612 0.248932
88.542 -0.664773 0.278306
88.88 -0.666144 0.297633
89.218 -0.640664 0.328738
89.556 -0.623392 0.352774
89.894 -0.610027 0.373815
90.232 -0.601229 0.403345
90.57 -0.576016 0.41523
90.908 -0.560089 0.433183
91.246 -0.535953 0.454327
91.584 -0.502345 0.47509
91.922 -0.49658 0.480097
92.26 -0.48133 0.4996
92.598 -0.454862 0.507839
92.936 -0.440804 0.515795
93.274 -0.419599 0.534033
93.612 -0.399731 0.542571
93.95 -0.376706 0.556872
94.288 -0.355655 0.553376
94.626 -0.335778 0.571667
94.964 -0.311311 0.583042
95.302 -0.292937 0.593945
95.64 -0.266015 0.59476
95.978 -0.245401 0.612124
96.316 -0.221521 0.619266
96.654 -0.197623 0.628353
96.992 -0.175672 0.647707
97.33 -0.147586 0.640282
97.668 -0.120627 0.641959
98.006 -0.0917977 0.649615
98.344 -0.0641614 0.655495
98.682 -0.034213 0.654351
99.02 -0.00818683 0.655692
99.358 0.0216344 0.654911
99.696 0.0565765 0.645188
100.034 0.0776118 0.644513
100.372 0.101985 0.642138
100.71 0.128101 0.64115
101.048 0.15657 0.630444
101.386 0.178607 0.629524
101.724 0.20223 0.61953
102.062 0.226573 0.614853
102.4 0.241529 0.598663
102.738 0.27807 0.599365
103.076 0.301891 0.584674
103.414 0.325438 0.583254
103.752 0.352727 0.568305
104.09 0.372965 0.554094
104.428 0.391179 0.54296
104.766 0.417678 0.529707
105.104 0.42961 0.52579
105.442 0.461622 0.503316
105.78 0.479738 0.486401
106.118 0.504059 0.470266
106.456 0.520644 0.460739
106.794 0.540076 0.438499
107.132 0.560437 0.420896
107.47 0.572445 0.401703
107.808 0.605657 0.383913
108.146 0.607508 0.366687
108.484 0.627632 0.34431
108.822 0.639312 0.325501
109.16 0.649663 0.303859
109.498 0.66845 0.279583
109.836 0.685224 0.258654
110.174 0.695852 0.229905
110.512 0.718686 0.196057
110.85 0.719009 0.180102
111.188 0.72268 0.155521
111.526 0.730227 0.124743
111.864 0.731718 0.090242
112.202 0.742302 0.0719409
112.54 0.750545 0.0409446
112.878 0.755816 0.0187717
113.216 0.771215 0.00071461
113.554 0.755729 -0.0402611
113.892 0.759374 -0.0660241
114.23 0.755534 -0.0980414
114.568 0.754682 -0.131189
114.906 0.747991 -0.157134
115.244 0.743254 -0.176911
115.582 0.737538 -0.210245
115.92 0.743631 -0.245852
116.258 0.728337 -0.267118
116.596 0.708352 -0.294732
116.934 0.700147 -0.31929
117.272 0.683941 -0.356534
117.61 0.672472 -0.365667
117.948 0.656872 -0.387519
118.286 0.636823 -0.416781
118.624 0.64154 -0.43981
118.962 0.602357 -0.459705
119.3 0.585398 -0.487605
119.638 0.565873 -0.50033
119.976 0.551347 -0.52499
120.314 0.525236 -0.538449
120.652 0.494181 -0.552632
120.99 0.478577 -0.570109
121.328 0.460644 -0.603273
121.666 0.427372 -0.597606
122.004 0.393352 -0.618464
122.342 0.368925 -0.628005
122.68 0.341799 -0.638564
123.018 0.3201 -0.65365
123.356 0.290089 -0.662639
123.694 0.261177 -0.667303
124.032 0.231554 -0.665087
124.37 0.202595 -0.68238
124.708 0.180512 -0.688274
125.046 0.141816 -0.69002
125.384 0.11283 -0.683865
125.722 0.0860447 -0.696095
126.06 0.0490159 -0.697
126.398 0.0240304 -0.700449
126.736 -0.0150091 -0.704781
127.074 -0.0347811 -0.686027
127.412 -0.0657142 -0.689048
127.75 -0.0914891 -0.681185
128.088 -0.130832 -0.678614
128.426 -0.155558 -0.672624
128.764 -0.185903 -0.660961
129.102 -0.207671 -0.656417
129.44 -0.249423 -0.649769
129.778 -0.266589 -0.625808
130.116 -0.296124 -0.617201
130.454 -0.321469 -0.603336
130.792 -0.356767 -0.586143
131.13 -0.372367 -0.575148
131.468 -0.394154 -0.553241
131.806 -0.421869 -0.534651
132.144 -0.432988 -0.515628
132.482 -0.458976 -0.493401
132.82 -0.482815 -0.471353
133.158 -0.504376 -0.454076
133.496 -0.528334 -0.431656
133.834 -0.538103 -0.415626
134.172 -0.556243 -0.390826
134.51 -0.567833 -0.357592
134.848 -0.579258 -0.322868
135.186 -0.590917 -0.306688
135.524 -0.605723 -0.28134
135.862 -0.615372 -0.255639
136.2 -0.624458 -0.23316
136.538 -0.63424 -0.205293
136.876 -0.63766 -0.178337
137.214 -0.645016 -0.154802
137.552 -0.66235 -0.130952
137.89 -0.651477 -0.0990693
138.228 -0.651106 -0.0671365
138.566 -0.655756 -0.0372649
138.904 -0.650147 -0.0138242
139.242 -0.648741 0.0189679
139.58 -0.649916 0.0508979
139.918 -0.641159 0.0739333
140.256 -0.64541 0.0910372
140.594 -0.628713 0.127588
140.932 -0.625092 0.160601
141.27 -0.617773 0.187712
141.608 -0.60542 0.205236
141.946 -0.599964 0.237391
142.284 -0.589117 0.262941
142.622 -0.579373 0.28962
142.96 -0.576068 0.3167
143.298 -0.556854 0.336942
143.636 -0.545537 0.362725
143.974 -0.53001 0.390551
144.312 -0.52533 0.414606
144.65 -0.501944 0.440643
144.988 -0.484001 0.458074
145.326 -0.470451 0.4846
145.664 -0.452814 0.491793
146.002 -0.44535 0.523125
146.34 -0.428087 0.545547
146.678 -0.401425 0.570489
147.016 -0.385325 0.592099
147.354 -0.365187 0.607332
147.692 -0.350882 0.62184
148.03 -0.324546 0.641827
148.368 -0.302466 0.64895
148.706 -0.289368 0.67729
149.044 -0.261287 0.687279
149.382 -0.232691 0.701117
149.72 -0.207274 0.719463
150.058 -0.196312 0.723844
150.396 -0.16342 0.739669
150.734 -0.146099 0.742909
151.072 -0.134388 0.752232
151.41 -0.092487 0.758707
151.748 -0.0655059 0.763569
152.086 -0.0314482 0.76956
152.424 -0.00539887 0.765477
152.762 0.0202996 0.770442
153.1 0.048425 0.769953
153.438 0.068776 0.766722
153.776 0.101407 0.751607
154.114 0.132119 0.758307
154.452 0.156867 0.750765
154.79 0.181748 0.73706
155.128 0.202421 0.723234
155.466 0.22904 0.712891
155.804 0.258734 0.704016
156.142 0.28092 0.688579
156.48 0.317444 0.671309
156.818 0.328409 0.653484
157.156 0.353031 0.64255
157.494 0.372801 0.623061
157.832 0.388263 0.606972
158.17 0.409243 0.581061
158.508 0.428315 0.561408
158.846 0.444029 0.544523
159.184 0.463403 0.506365
159.522 0.470267 0.494402
159.86 0.490971 0.472334
160.198 0.50763 0.457755
160.536 0.519567 0.438079
160.874 0.536627 0.403567
161.212 0.541931 0.371832
161.55 0.55277 0.347379
161.888 0.579255 0.339851
162.226 0.576618 0.306152
162.564 0.584323 0.283879
162.902 0.58848 0.246302
163.24 0.592789 0.211647
163.578 0.603388 0.190936
163.916 0.612444 0.168593
164.254 0.60562 0.12111
164.592 0.615156 0.0940334
164.93 0.611789 0.0663492
165.268 0.606288 0.0379356
165.606 0.614806 0.017337
165.944 0.617906 -0.0175601
166.282 0.609539 -0.0466972
166.62 0.605394 -0.0736874
166.958 0.595339 -0.109057
167.296 0.57952 -0.13629
167.634 0.581269 -0.169714
167.972 0.571043 -0.200248
168.31 0.558924 -0.227011
168.648 0.562311 -0.246669
168.986 0.545765 -0.279874
169.324 0.532362 -0.304562
169.662 0.518465 -0.335956
170 0.508035 -0.352579
