! Touchstone file generated by AntScopeKit
# MHz S RI R 50
! Format: Frequency S-real S-imaginary (normalized to 50 Ohm)
1 0.987067 -0.131005
1.338 0.980017 -0.17243
1.676 0.976338 -0.21282
2.014 0.968837 -0.2477
2.352 0.957555 -0.288249
2.69 0.944771 -0.327732
3.028 0.929158 -0.369682
3.366 0.91573 -0.401794
3.704 0.897072 -0.441884
4.042 0.877059 -0.480383
4.38 0.857968 -0.513703
4.718 0.838648 -0.544673
5.056 0.815916 -0.578171
5.394 0.78901 -0.61438
5.732 0.765444 -0.643502
6.07 0.740928 -0.671584
6.408 0.710917 -0.703276
6.746 0.683495 -0.729956
7.084 0.653237 -0.757153
7.422 0.621387 -0.783503
7.76 0.600225 -0.799831
8.098 0.56042 -0.828209
8.436 0.52481 -0.851219
8.774 0.485378 -0.874304
9.112 0.458062 -0.88892
9.45 0.41721 -0.905566
9.788 0.373922 -0.921488
10.126 0.335527 -0.933184
10.464 0.301229 -0.935168
10.802 0.261407 -0.947603
11.14 0.217701 -0.954522
11.478 0.177121 -0.953875
11.816 0.134823 -0.95904
12.154 0.0951556 -0.954681
12.492 0.0568297 -0.95022
12.83 0.0221155 -0.949926
13.168 -0.0117654 -0.949291
13.506 -0.057597 -0.935021
13.844 -0.0904763 -0.931082
14.182 -0.124105 -0.91959
14.52 -0.156955 -0.912349
14.858 -0.191287 -0.900426
15.196 -0.222602 -0.893755
15.534 -0.252335 -0.879338
15.872 -0.300771 -0.855586
16.21 -0.311859 -0.860484
16.548 -0.354043 -0.856811
16.886 -0.378549 -0.833331
17.224 -0.404391 -0.823595
17.562 -0.438615 -0.799824
17.9 -0.471581 -0.781097
18.238 -0.500012 -0.7686
18.576 -0.506542 -0.742028
18.914 -0.558143 -0.720773
19.252 -0.586492 -0.705712
19.59 -0.611118 -0.679056
19.928 -0.641824 -0.645881
20.266 -0.668982 -0.628523
20.604 -0.69123 -0.601919
20.942 -0.719752 -0.571664
21.28 -0.763784 -0.552601
21.618 -0.764967 -0.503979
21.956 -0.782684 -0.476133
22.294 -0.806162 -0.444198
22.632 -0.83451 -0.405923
22.97 -0.842936 -0.370807
23.308 -0.858904 -0.336613
23.646 -0.876548 -0.30242
23.984 -0.872355 -0.242148
24.322 -0.891948 -0.222848
24.66 -0.904698 -0.18574
24.998 -0.908307 -0.145629
25.336 -0.908748 -0.104757
25.674 -0.919467 -0.0578969
26.012 -0.920583 -0.0214187
26.35 -0.919589 0.0196885
26.688 -0.919638 0.0332011
27.026 -0.916805 0.101611
27.364 -0.913973 0.141494
27.702 -0.899734 0.184038
28.04 -0.90119 0.229546
28.378 -0.885982 0.260399
28.716 -0.871808 0.298745
29.054 -0.855793 0.329064
29.392 -0.809094 0.385623
29.73 -0.820498 0.397875
30.068 -0.803983 0.433695
30.406 -0.775551 0.464408
30.744 -0.755039 0.498111
31.082 -0.72997 0.520765
31.42 -0.702552 0.546281
31.758 -0.677041 0.570593
32.096 -0.661793 0.583913
32.434 -0.624412 0.618359
32.772 -0.593353 0.64284
33.11 -0.563788 0.65599
33.448 -0.533649 0.678286
33.786 -0.512145 0.696832
34.124 -0.483979 0.71734
34.462 -0.455057 0.726439
34.8 -0.45337 0.740322
35.138 -0.392174 0.758446
35.476 -0.363322 0.771602
35.814 -0.330559 0.783345
36.152 -0.290539 0.792764
36.49 -0.265686 0.804637
36.828 -0.230523 0.810393
37.166 -0.196544 0.821555
37.504 -0.148194 0.815822
37.842 -0.130932 0.833642
38.18 -0.0999218 0.842854
38.518 -0.0658047 0.836705
38.856 -0.0234834 0.845906
39.194 0.00297251 0.84231
39.532 0.0407316 0.84531
39.87 0.0752738 0.837023
40.208 0.110769 0.82243
40.546 0.140932 0.830292
40.884 0.171478 0.820901
41.222 0.201163 0.817334
41.56 0.229851 0.805518
41.898 0.270117 0.797615
42.236 0.298996 0.784796
42.574 0.332333 0.772597
42.912 0.371524 0.728381
43.25 0.390237 0.744564
43.588 0.415938 0.724478
43.926 0.448701 0.710043
44.264 0.472868 0.681651
44.602 0.504053 0.675806
44.94 0.52574 0.646643
45.278 0.552445 0.628394
45.616 0.599208 0.611142
45.954 0.597936 0.579709
46.292 0.61344 0.55306
46.63 0.640137 0.528984
46.968 0.664568 0.503117
47.306 0.680745 0.475195
47.644 0.701054 0.442781
47.982 0.718923 0.410761
48.32 0.742864 0.405541
48.658 0.750404 0.353868
48.996 0.767331 0.319552
49.334 0.775022 0.284591
49.672 0.795311 0.248391
50.01 0.796035 0.220612
50.348 0.810726 0.185788
50.686 0.814905 0.154817
51.024 0.848893 0.106449
51.362 0.830807 0.0864172
51.7 0.837479 0.0467871
52.038 0.836101 0.0103556
52.376 0.837505 -0.0277346
52.714 0.833147 -0.0607854
53.052 0.831226 -0.0898589
53.39 0.825285 -0.126539
53.728 0.796744 -0.176126
54.066 0.805476 -0.197561
54.404 0.787553 -0.23717
54.742 0.775465 -0.264191
55.08 0.754292 -0.300897
55.418 0.743815 -0.329876
55.756 0.726112 -0.356891
56.094 0.698346 -0.391065
56.432 0.666808 -0.39602
56.77 0.648093 -0.446727
57.108 0.621232 -0.476221
57.446 0.58371 -0.499238
57.784 0.552862 -0.519649
58.122 0.515807 -0.547968
58.46 0.477012 -0.565656
58.798 0.437043 -0.583223
59.136 0.409524 -0.587541
59.474 0.35019 -0.609541
59.812 0.301699 -0.610082
60.15 0.25719 -0.616829
60.488 0.212286 -0.611881
60.826 0.163512 -0.60954
61.164 0.121194 -0.600831
61.502 0.0747337 -0.585383
61.84 0.0469438 -0.577283
62.178 -0.00633315 -0.540832
62.516 -0.0430984 -0.508391
62.854 -0.0736563 -0.476496
63.192 -0.0950584 -0.433874
63.53 -0.112311 -0.400275
63.868 -0.123539 -0.361723
64.206 -0.127245 -0.326906
64.544 -0.126629 -0.299526
64.882 -0.124433 -0.261983
65.22 -0.116338 -0.229277
65.558 -0.111941 -0.203451
65.896 -0.101248 -0.173133
66.234 -0.0905387 -0.143044
66.572 -0.0757436 -0.11104
66.91 -0.0451101 -0.0781883
67.248 -0.00568126 -0.0488147
67.586 0.0380223 -0.0347602
67.924 0.0890731 -0.0287731
68.262 0.136965 -0.0399524
68.6 0.179918 -0.0568992
68.938 0.217214 -0.0837448
69.276 0.248756 -0.114356
69.614 0.273223 -0.148926
69.952 0.298897 -0.19248
70.29 0.309894 -0.224067
70.628 0.318892 -0.264784
70.966 0.329288 -0.308044
71.304 0.32832 -0.35501
71.642 0.317396 -0.408099
71.98 0.303949 -0.451954
72.318 0.273077 -0.499768
72.656 0.249109 -0.551913
72.994 0.19701 -0.565493
73.332 0.155463 -0.601638
73.67 0.115599 -0.616864
74.008 0.0753529 -0.635563
74.346 0.0304067 -0.639849
74.684 -0.00518319 -0.651111
75.022 -0.049092 -0.65488
75.36 -0.0752207 -0.643097
75.698 -0.125411 -0.653022
76.036 -0.160307 -0.64716
76.374 -0.193349 -0.645876
76.712 -0.24014 -0.635362
77.05 -0.264563 -0.630563
77.388 -0.300264 -0.620598
77.726 -0.337956 -0.603998
78.064 -0.356545 -0.575086
78.402 -0.398864 -0.57319
78.74 -0.429667 -0.553977
79.078 -0.456412 -0.536418
79.416 -0.481844 -0.522518
79.754 -0.508548 -0.498543
80.092 -0.534429 -0.476838
80.43 -0.560148 -0.450886
80.768 -0.584584 -0.412524
81.106 -0.607531 -0.40437
81.444 -0.624115 -0.375039
81.782 -0.648737 -0.345181
82.12 -0.662582 -0.320557
82.458 -0.682101 -0.283892
82.796 -0.692963 -0.252256
83.134 -0.710174 -0.219263
83.472 -0.701106 -0.183147
83.81 -0.728526 -0.149693
84.148 -0.729567 -0.115851
84.486 -0.739388 -0.0840472
84.824 -0.731463 -0.0500692
85.162 -0.740436 -0.0161421
85.5 -0.7438 0.0172929
85.838 -0.736886 0.0512462
86.176 -0.750367 0.0745064
86.514 -0.729872 0.113483
86.852 -0.719813 0.143609
87.19 -0.716896 0.17374
87.528 -0.707467 0.210693
87.866 -0.695786 0.230817
88.204 -0.687107 0.253911
88.542 -0.671557 0.284608
88.88 -0.674381 0.321286
89.218 -0.641501 0.334542
89.556 -0.627129 0.363886
89.894 -0.611459 0.38295
90.232 -0.585447 0.401956
90.57 -0.573193 0.42443
90.908 -0.555011 0.444083
91.246 -0.538064 0.458456
91.584 -0.529015 0.473486
91.922 -0.49389 0.488323
92.26 -0.470864 0.501408
92.598 -0.452085 0.512592
92.936 -0.426277 0.526521
93.274 -0.409526 0.535412
93.612 -0.387588 0.545435
93.95 -0.372053 0.55471
94.288 -0.350741 0.549488
94.626 -0.328609 0.572669
94.964 -0.305785 0.583713
95.302 -0.289116 0.588246
95.64 -0.263448 0.603353
95.978 -0.241886 0.612453
96.316 -0.222423 0.615751
96.654 -0.197406 0.622644
96.992 -0.180778 0.623579
97.33 -0.147586 0.637726
97.668 -0.119703 0.646868
98.006 -0.0926903 0.648908
98.344 -0.0649049 0.650568
98.682 -0.0351317 0.655936
99.02 -0.00262776 0.654762
99.358 0.0220873 0.654799
99.696 0.0442529 0.662521
100.034 0.0773538 0.650885
100.372 0.101592 0.646343
100.71 0.131379 0.641874
101.048 0.156017 0.62932
101.386 0.182297 0.628143
101.724 0.209715 0.619808
102.062 0.231801 0.609269
102.4 0.265587 0.596245
102.738 0.278833 0.599046
103.076 0.309739 0.591401
103.414 0.329272 0.575543
103.752 0.353888 0.565038
104.09 0.376693 0.552572
104.428 0.39871 0.542929
104.766 0.421506 0.52681
105.104 0.450828 0.53028
105.442 0.462627 0.499743
105.78 0.484433 0.486488
106.118 0.504641 0.468839
106.456 0.518539 0.454664
106.794 0.539493 0.435091
107.132 0.552977 0.414616
107.47 0.575794 0.400257
107.808 0.583315 0.369943
108.146 0.607059 0.362678
108.484 0.625587 0.344519
108.822 0.639982 0.32453
109.16 0.64986 0.303986
109.498 0.667502 0.27798
109.836 0.685164 0.253913
110.174 0.694009 0.228753
110.512 0.72255 0.214946
110.85 0.719005 0.176314
111.188 0.725527 0.152112
111.526 0.730257 0.136417
111.864 0.7394 0.102156
112.202 0.747434 0.0750945
112.54 0.748318 0.0467386
112.878 0.754259 0.0172358
113.216 0.740978 -0.0129593
113.554 0.760724 -0.0393732
113.892 0.756773 -0.0662215
114.23 0.758478 -0.0999517
114.568 0.75521 -0.122245
114.906 0.756655 -0.151005
115.244 0.747516 -0.181391
115.582 0.74561 -0.212785
115.92 0.718218 -0.241177
116.258 0.721196 -0.272799
116.596 0.714567 -0.293823
116.934 0.69711 -0.322313
117.272 0.691997 -0.347621
117.61 0.67668 -0.372393
117.948 0.660912 -0.396257
118.286 0.642995 -0.420355
118.624 0.613851 -0.452817
118.962 0.606421 -0.463682
119.3 0.590489 -0.483486
119.638 0.561058 -0.508201
119.976 0.53987 -0.515598
120.314 0.516191 -0.537794
120.652 0.49152 -0.56327
120.99 0.47209 -0.572053
121.328 0.435141 -0.594808
121.666 0.422539 -0.598771
122.004 0.400787 -0.617642
122.342 0.368028 -0.628147
122.68 0.343424 -0.64588
123.018 0.312989 -0.653222
123.356 0.28234 -0.656229
123.694 0.262841 -0.668471
124.032 0.220083 -0.675886
124.37 0.205381 -0.680818
124.708 0.177011 -0.68861
125.046 0.137908 -0.691155
125.384 0.112487 -0.691951
125.722 0.0807073 -0.69577
126.06 0.0513651 -0.696295
126.398 0.0226895 -0.694444
126.736 -0.00828654 -0.680061
127.074 -0.03557 -0.684978
127.412 -0.0654812 -0.686009
127.75 -0.0983662 -0.681688
128.088 -0.128288 -0.671549
128.426 -0.153556 -0.67007
128.764 -0.185754 -0.654362
129.102 -0.207974 -0.653042
129.44 -0.230566 -0.645299
129.778 -0.27129 -0.630945
130.116 -0.295802 -0.615641
130.454 -0.317671 -0.605637
130.792 -0.343725 -0.58091
131.13 -0.371107 -0.575175
131.468 -0.389479 -0.557355
131.806 -0.421664 -0.537702
132.144 -0.443459 -0.506418
132.482 -0.464331 -0.501694
132.82 -0.4808 -0.479247
133.158 -0.501347 -0.456636
133.496 -0.52725 -0.429802
133.834 -0.536368 -0.410156
134.172 -0.553739 -0.383743
134.51 -0.566206 -0.364786
134.848 -0.591576 -0.333355
135.186 -0.591421 -0.310931
135.524 -0.601321 -0.278227
135.862 -0.614106 -0.260645
136.2 -0.623244 -0.231432
136.538 -0.629985 -0.209845
136.876 -0.639594 -0.178228
137.214 -0.644837 -0.145881
137.552 -0.648556 -0.132673
137.89 -0.648629 -0.097917
138.228 -0.656795 -0.0607562
138.566 -0.652272 -0.0356198
138.904 -0.647759 -0.00575399
139.242 -0.643374 0.0183433
139.58 -0.642274 0.0506788
139.918 -0.638586 0.0754132
140.256 -0.646455 0.103837
140.594 -0.62776 0.12826
140.932 -0.622076 0.160612
141.27 -0.612526 0.185633
141.608 -0.611644 0.216168
141.946 -0.597639 0.238389
142.284 -0.5897 0.268413
142.622 -0.576986 0.288775
142.96 -0.562606 0.325425
143.298 -0.553955 0.344627
143.636 -0.538323 0.363791
143.974 -0.53088 0.387629
144.312 -0.514322 0.411269
144.65 -0.500355 0.434306
144.988 -0.48446 0.457591
145.326 -0.471201 0.480123
145.664 -0.465265 0.504427
146.002 -0.436667 0.530569
146.34 -0.41724 0.545501
146.678 -0.40338 0.570529
147.016 -0.385482 0.584886
147.354 -0.369436 0.602395
147.692 -0.345488 0.630261
148.03 -0.328445 0.640588
148.368 -0.302012 0.659937
148.706 -0.280204 0.66962
149.044 -0.256349 0.690411
149.382 -0.228834 0.701336
149.72 -0.218335 0.715808
150.058 -0.781376 0.62406
150.396 -0.162917 0.738156
150.734 -0.136649 0.738994
151.072 -0.113025 0.757511
151.41 -0.0865184 0.759976
151.748 -0.0654615 0.767484
152.086 -0.0276379 0.768937
152.424 -0.0135239 0.769453
152.762 0.0153305 0.767529
153.1 0.0457015 0.768338
153.438 0.0757012 0.765824
153.776 0.0899723 0.762542
154.114 0.127424 0.752179
154.452 0.160596 0.742793
154.79 0.180419 0.732966
155.128 0.205121 0.724377
155.466 0.232515 0.718435
155.804 0.263523 0.705873
156.142 0.28406 0.687834
156.48 0.310803 0.662104
156.818 0.327078 0.651644
157.156 0.345156 0.645845
157.494 0.372468 0.617657
157.832 0.394035 0.6037
158.17 0.408656 0.580509
158.508 0.426573 0.551616
158.846 0.448167 0.541785
159.184 0.46373 0.539693
159.522 0.476641 0.499758
159.86 0.495202 0.472712
160.198 0.506917 0.451685
160.536 0.524752 0.430699
160.874 0.531397 0.392745
161.212 0.547876 0.377544
161.55 0.555093 0.349072
161.888 0.572295 0.321462
162.226 0.575734 0.290665
162.564 0.58412 0.268227
162.902 0.586372 0.248923
163.24 0.588729 0.213811
163.578 0.601949 0.191055
163.916 0.595255 0.152343
164.254 0.600814 0.128543
164.592 0.608856 0.104846
164.93 0.608789 0.0795379
165.268 0.607093 0.0463428
165.606 0.612137 0.0232023
165.944 0.60611 -0.0194655
166.282 0.601222 -0.0521381
166.62 0.600717 -0.0733955
166.958 0.593164 -0.101697
167.296 0.59846 -0.142637
167.634 0.588079 -0.158923
167.972 0.584161 -0.189534
168.31 0.560634 -0.22666
168.648 0.559727 -0.24663
168.986 0.543105 -0.281122
169.324 0.531139 -0.307446
169.662 0.517583 -0.334644
170 0.503204 -0.356259
