! Touchstone file generated by AntScopeKit
# MHz S RI R 50
! Format: Frequency S-real S-imaginary (normalized to 50 Ohm)
1 0.988831 -0.062867
1.338 0.995441 -0.0806442
1.676 0.995043 -0.099424
2.014 0.992437 -0.118653
2.352 0.991588 -0.129436
2.69 0.986003 -0.156652
3.028 0.983322 -0.175781
3.366 0.981999 -0.188884
3.704 0.977643 -0.209086
4.042 0.970758 -0.232152
4.38 0.967783 -0.244833
4.718 0.964438 -0.264309
5.056 0.949744 -0.283803
5.394 0.953668 -0.300861
5.732 0.944432 -0.321907
6.07 0.941804 -0.335581
6.408 0.937256 -0.348643
6.746 0.924564 -0.375795
7.084 0.915996 -0.390004
7.422 0.907047 -0.407904
7.76 0.896611 -0.422152
8.098 0.898325 -0.439331
8.436 0.884259 -0.451721
8.774 0.874482 -0.474169
9.112 0.861667 -0.481181
9.45 0.852933 -0.499677
9.788 0.843915 -0.511035
10.126 0.832477 -0.522688
10.464 0.82914 -0.540167
10.802 0.811413 -0.549435
11.14 0.807224 -0.561264
11.478 0.797248 -0.568585
11.816 0.780959 -0.578605
12.154 0.772483 -0.591981
12.492 0.761518 -0.603722
12.83 0.74876 -0.611805
13.168 0.733628 -0.6326
13.506 0.726932 -0.637396
13.844 0.719725 -0.642418
14.182 0.714342 -0.655356
14.52 0.70356 -0.66015
14.858 0.687484 -0.668556
15.196 0.680828 -0.682363
15.534 0.668535 -0.686569
15.872 0.68935 -0.688773
16.21 0.647601 -0.710773
16.548 0.645385 -0.732703
16.886 0.628103 -0.733518
17.224 0.609028 -0.742077
17.562 0.601353 -0.749653
17.9 0.592646 -0.756711
18.238 0.582011 -0.771808
18.576 0.5422 -0.783794
18.914 0.550694 -0.79352
19.252 0.543566 -0.794524
19.59 0.525646 -0.802751
19.928 0.509315 -0.814388
20.266 0.501117 -0.825391
20.604 0.48978 -0.833338
20.942 0.46692 -0.842957
21.28 0.467724 -0.865704
21.618 0.442478 -0.855861
21.956 0.425627 -0.869284
22.294 0.420065 -0.870852
22.632 0.398057 -0.884172
22.97 0.388519 -0.887531
23.308 0.370083 -0.885883
23.646 0.355579 -0.897513
23.984 0.364385 -0.919142
24.322 0.319697 -0.905217
24.66 0.304653 -0.910994
24.998 0.289383 -0.916073
25.336 0.273249 -0.918167
25.674 0.256674 -0.92485
26.012 0.237042 -0.925905
26.35 0.220019 -0.931904
26.688 0.180508 -0.946689
27.026 0.189166 -0.94235
27.364 0.166645 -0.952632
27.702 0.1554 -0.943917
28.04 0.123128 -0.946212
28.378 0.118566 -0.954383
28.716 0.10202 -0.950046
29.054 0.0891969 -0.954702
29.392 0.0626511 -0.978059
29.73 0.0512145 -0.955008
30.068 0.0354958 -0.959146
30.406 0.0143242 -0.96234
30.744 -0.00198333 -0.952002
31.082 -0.0236466 -0.961576
31.42 -0.0430756 -0.957935
31.758 -0.0572428 -0.957935
32.096 -0.0801285 -0.969242
32.434 -0.0977368 -0.951367
32.772 -0.109772 -0.95153
33.11 -0.132643 -0.946595
33.448 -0.14665 -0.941813
33.786 -0.166874 -0.941335
34.124 -0.184811 -0.941974
34.462 -0.201358 -0.935872
34.8 -0.21456 -0.904856
35.138 -0.238122 -0.924855
35.476 -0.262953 -0.917108
35.814 -0.278013 -0.911401
36.152 -0.304104 -0.902137
36.49 -0.315159 -0.901103
36.828 -0.328136 -0.890861
37.166 -0.344016 -0.886448
37.504 -0.364498 -0.899886
37.842 -0.379548 -0.87253
38.18 -0.400124 -0.863367
38.518 -0.414038 -0.85335
38.856 -0.431502 -0.849415
39.194 -0.44441 -0.833293
39.532 -0.463971 -0.826818
39.87 -0.47604 -0.810936
40.208 -0.504371 -0.777729
40.546 -0.507151 -0.792324
40.884 -0.523118 -0.77645
41.222 -0.533101 -0.762856
41.56 -0.555048 -0.753817
41.898 -0.56318 -0.73478
42.236 -0.576082 -0.722076
42.574 -0.592902 -0.71185
42.912 -0.635928 -0.687835
43.25 -0.61463 -0.679753
43.588 -0.631567 -0.670087
43.926 -0.642893 -0.649091
44.264 -0.646032 -0.63105
44.602 -0.662192 -0.618753
44.94 -0.675255 -0.607117
45.278 -0.684976 -0.585149
45.616 -0.667297 -0.568816
45.954 -0.697984 -0.55544
46.292 -0.708573 -0.537553
46.63 -0.71688 -0.520571
46.968 -0.722522 -0.500367
47.306 -0.736532 -0.487042
47.644 -0.738178 -0.466828
47.982 -0.747079 -0.449325
48.32 -0.724535 -0.435853
48.658 -0.760545 -0.411704
48.996 -0.763012 -0.390997
49.334 -0.766309 -0.377813
49.672 -0.777278 -0.357343
50.01 -0.771699 -0.33786
50.348 -0.775286 -0.317547
50.686 -0.7768 -0.304903
51.024 -0.78271 -0.309819
51.362 -0.783227 -0.266001
51.7 -0.79021 -0.252031
52.038 -0.785979 -0.237667
52.376 -0.793971 -0.216713
52.714 -0.790278 -0.198663
53.052 -0.789604 -0.179106
53.39 -0.795711 -0.160368
53.728 -0.785796 -0.155577
54.066 -0.800474 -0.124996
54.404 -0.796919 -0.100676
54.742 -0.806752 -0.0806778
55.08 -0.795469 -0.060085
55.418 -0.804275 -0.0351638
55.756 -0.806307 -0.0150772
56.094 -0.801529 0.0135837
56.432 -0.784783 0.0584339
56.77 -0.78876 0.0645935
57.108 -0.780064 0.0941019
57.446 -0.767942 0.117396
57.784 -0.750977 0.136244
58.122 -0.741034 0.16783
58.46 -0.717969 0.192342
58.798 -0.700658 0.214939
59.136 -0.697502 0.235916
59.474 -0.654542 0.258819
59.812 -0.623896 0.278057
60.15 -0.597342 0.299551
60.488 -0.567979 0.312324
60.826 -0.529075 0.328676
61.164 -0.492998 0.335564
61.502 -0.449763 0.340327
61.84 -0.421906 0.332912
62.178 -0.367246 0.338062
62.516 -0.328333 0.329858
62.854 -0.285504 0.313955
63.192 -0.247599 0.291831
63.53 -0.215024 0.270485
63.868 -0.183733 0.241078
64.206 -0.160942 0.209897
64.544 -0.150214 0.174646
64.882 -0.13189 0.152355
65.22 -0.119898 0.127565
65.558 -0.105843 0.104721
65.896 -0.085219 0.0770854
66.234 -0.0667429 0.0427108
66.572 -0.0503272 0.000629385
66.91 -0.0421127 -0.0486863
67.248 -0.0484369 -0.106911
67.586 -0.0631373 -0.158583
67.924 -0.0929542 -0.209249
68.262 -0.133371 -0.250107
68.6 -0.1738 -0.281599
68.938 -0.219984 -0.304075
69.276 -0.268898 -0.318345
69.614 -0.312172 -0.325062
69.952 -0.360507 -0.317651
70.29 -0.391836 -0.329239
70.628 -0.433843 -0.324157
70.966 -0.467477 -0.317603
71.304 -0.503713 -0.303524
71.642 -0.533398 -0.296844
71.98 -0.568222 -0.283553
72.318 -0.597378 -0.263352
72.656 -0.639228 -0.234367
72.994 -0.654984 -0.22013
73.332 -0.678187 -0.189493
73.67 -0.694129 -0.165179
74.008 -0.706953 -0.131376
74.346 -0.714797 -0.110899
74.684 -0.722752 -0.0825705
75.022 -0.730975 -0.0619534
75.36 -0.714868 -0.0424526
75.698 -0.733279 -0.0160522
76.036 -0.737962 0.0036412
76.374 -0.741679 0.0235955
76.712 -0.73801 0.0391125
77.05 -0.747446 0.0651373
77.388 -0.740226 0.0867801
77.726 -0.745189 0.105865
78.064 -0.746313 0.105384
78.402 -0.738709 0.140971
78.74 -0.737062 0.160539
79.078 -0.735808 0.172369
79.416 -0.725452 0.192466
79.754 -0.732665 0.205819
80.092 -0.726544 0.223041
80.43 -0.731142 0.241901
80.768 -0.706373 0.250007
81.106 -0.721146 0.269114
81.444 -0.720058 0.290754
81.782 -0.712207 0.303605
82.12 -0.7038 0.314053
82.458 -0.700782 0.335374
82.796 -0.70069 0.348095
83.134 -0.693704 0.365092
83.472 -0.665559 0.37169
83.81 -0.680983 0.394508
84.148 -0.671543 0.413424
84.486 -0.663422 0.425072
84.824 -0.64296 0.431973
85.162 -0.644381 0.449342
85.5 -0.633879 0.459618
85.838 -0.619865 0.473358
86.176 -0.599711 0.500838
86.514 -0.599711 0.493372
86.852 -0.583029 0.502885
87.19 -0.57654 0.510863
87.528 -0.566793 0.522311
87.866 -0.551777 0.526908
88.204 -0.539485 0.531516
88.542 -0.528305 0.537151
88.88 -0.532625 0.551309
89.218 -0.509243 0.552915
89.556 -0.493571 0.553458
89.894 -0.486344 0.561974
90.232 -0.465925 0.566726
90.57 -0.462698 0.565856
90.908 -0.458131 0.569455
91.246 -0.442779 0.57164
91.584 -0.42303 0.587865
91.922 -0.426467 0.579705
92.26 -0.415208 0.583918
92.598 -0.408797 0.584676
92.936 -0.393944 0.585534
93.274 -0.394761 0.590348
93.612 -0.3803 0.595667
93.95 -0.380576 0.598844
94.288 -0.357967 0.595811
94.626 -0.366746 0.606889
94.964 -0.355207 0.61226
95.302 -0.350004 0.6178
95.64 -0.335277 0.621619
95.978 -0.329557 0.62917
96.316 -0.318729 0.633684
96.654 -0.309652 0.639965
96.992 -0.310696 0.636702
97.33 -0.287904 0.651185
97.668 -0.278492 0.652518
98.006 -0.262814 0.657929
98.344 -0.249717 0.664208
98.682 -0.238017 0.666079
99.02 -0.230156 0.666845
99.358 -0.21502 0.671454
99.696 -0.18105 0.673961
100.034 -0.185758 0.674271
100.372 -0.17592 0.6747
100.71 -0.162482 0.677272
101.048 -0.157734 0.685296
101.386 -0.139305 0.680982
101.724 -0.129205 0.683729
102.062 -0.113504 0.684172
102.4 -0.107093 0.699487
102.738 -0.0904522 0.686508
103.076 -0.0770869 0.687799
103.414 -0.0653383 0.688929
103.752 -0.0504503 0.690086
104.09 -0.040613 0.689434
104.428 -0.0300894 0.692409
104.766 -0.018355 0.692602
105.104 -0.00598102 0.679705
105.442 0.00673194 0.689309
105.78 0.0168928 0.695163
106.118 0.0270128 0.691497
106.456 0.0455798 0.691644
106.794 0.0502484 0.693915
107.132 0.0630446 0.69547
107.47 0.0757825 0.691475
107.808 0.102177 0.685345
108.146 0.100716 0.691512
108.484 0.112524 0.692612
108.822 0.126839 0.68877
109.16 0.137176 0.68499
109.498 0.153374 0.685511
109.836 0.164743 0.689479
110.174 0.182157 0.683553
110.512 0.187322 0.676044
110.85 0.208198 0.680146
111.188 0.223766 0.680692
111.526 0.234449 0.673222
111.864 0.250909 0.670022
112.202 0.261734 0.664586
112.54 0.267043 0.66096
112.878 0.278204 0.651455
113.216 0.279794 0.650342
113.554 0.307903 0.639211
113.892 0.326017 0.644756
114.23 0.332047 0.639517
114.568 0.343246 0.628464
114.906 0.355239 0.623081
115.244 0.370499 0.626717
115.582 0.381598 0.614396
115.92 0.384405 0.597903
116.258 0.405254 0.605712
116.596 0.42256 0.595673
116.934 0.431186 0.585657
117.272 0.444389 0.583101
117.61 0.455005 0.580669
117.948 0.471797 0.569901
118.286 0.479054 0.563649
118.624 0.48343 0.547568
118.962 0.501033 0.544327
119.3 0.523891 0.537328
119.638 0.52663 0.517233
119.976 0.532801 0.503693
120.314 0.542176 0.505235
120.652 0.551476 0.489555
120.99 0.562109 0.477389
121.328 0.57183 0.477799
121.666 0.576438 0.46137
122.004 0.595882 0.449044
122.342 0.597961 0.435488
122.68 0.596702 0.428991
123.018 0.60895 0.422109
123.356 0.623247 0.409378
123.694 0.623634 0.389933
124.032 0.642979 0.370411
124.37 0.64217 0.37377
124.708 0.644987 0.355354
125.046 0.648354 0.348974
125.384 0.663863 0.335289
125.722 0.666613 0.324807
126.06 0.66908 0.315491
126.398 0.668048 0.298183
126.736 0.686558 0.283247
127.074 0.674847 0.273829
127.412 0.67968 0.25961
127.75 0.681823 0.252568
128.088 0.687652 0.242433
128.426 0.688653 0.228621
128.764 0.690269 0.220043
129.102 0.692955 0.202055
129.44 0.702883 0.197291
129.778 0.696987 0.177806
130.116 0.697345 0.168605
130.454 0.696883 0.155647
130.792 0.706071 0.150657
131.13 0.7015 0.146218
131.468 0.696964 0.133211
131.806 0.700847 0.114639
132.144 0.683851 0.109368
132.482 0.700271 0.0933969
132.82 0.700608 0.0823182
133.158 0.698215 0.0775234
133.496 0.701233 0.0669773
133.834 0.703781 0.0571431
134.172 0.701282 0.0509627
134.51 0.698664 0.0427267
134.848 0.695424 0.0121768
135.186 0.698752 0.0214114
135.524 0.701939 0.00909415
135.862 0.698151 -0.00308963
136.2 0.694393 -0.0124646
136.538 0.702771 -0.028209
136.876 0.69134 -0.0311757
137.214 0.697065 -0.0482729
137.552 0.688901 -0.0584605
137.89 0.697082 -0.064238
138.228 0.699774 -0.0792602
138.566 0.698094 -0.0903069
138.904 0.69952 -0.0956579
139.242 0.700345 -0.115306
139.58 0.702217 -0.133145
139.918 0.69658 -0.14585
140.256 0.710151 -0.157731
140.594 0.694259 -0.171495
140.932 0.691489 -0.184837
141.27 0.693111 -0.206514
141.608 0.69107 -0.227726
141.946 0.691228 -0.234386
142.284 0.681292 -0.25013
142.622 0.686625 -0.26513
142.96 0.688934 -0.289297
143.298 0.670259 -0.30461
143.636 0.671163 -0.317288
143.974 0.658557 -0.34316
144.312 0.656285 -0.358055
144.65 0.644507 -0.373873
144.988 0.645491 -0.38938
145.326 0.637981 -0.402806
145.664 0.613209 -0.423832
146.002 0.615383 -0.43933
146.34 0.603764 -0.454948
146.678 0.600991 -0.470157
147.016 0.590497 -0.49008
147.354 0.576549 -0.503614
147.692 0.571947 -0.513189
148.03 0.562494 -0.529912
148.368 0.564618 -0.55618
148.706 0.540456 -0.556344
149.044 0.529878 -0.567043
149.382 0.5085 -0.594
149.72 0.51446 -0.595189
150.058 -0.408467 0.912773
150.396 0.476505 -0.630156
150.734 0.473569 -0.635743
151.072 0.468557 -0.658962
151.41 0.446219 -0.663317
151.748 0.436148 -0.67412
152.086 0.41334 -0.690173
152.424 0.405902 -0.701537
152.762 0.399073 -0.704375
153.1 0.38586 -0.717866
153.438 0.366348 -0.718403
153.776 0.374407 -0.723616
154.114 0.34067 -0.745756
154.452 0.326293 -0.748274
154.79 0.322552 -0.760617
155.128 0.30548 -0.755299
155.466 0.299864 -0.771661
155.804 0.280582 -0.778156
156.142 0.265041 -0.788701
156.48 0.253239 -0.80619
156.818 0.249968 -0.797209
157.156 0.225201 -0.810457
157.494 0.221837 -0.804884
157.832 0.209917 -0.824954
158.17 0.19769 -0.8215
158.508 0.179299 -0.833847
158.846 0.168769 -0.834497
159.184 0.152998 -0.82557
159.522 0.13845 -0.83813
159.86 0.128057 -0.840516
160.198 0.116568 -0.850422
160.536 0.0942863 -0.859827
160.874 0.0964933 -0.852981
161.212 0.0773278 -0.846608
161.55 0.0632783 -0.850515
161.888 0.0581249 -0.861994
162.226 0.0412031 -0.848131
162.564 0.0251536 -0.85128
162.902 0.013817 -0.856488
163.24 0.00493115 -0.839279
163.578 -0.00833462 -0.856955
163.916 -0.0262283 -0.847142
164.254 -0.0328076 -0.844887
164.592 -0.060249 -0.846717
164.93 -0.0628989 -0.847874
165.268 -0.0718075 -0.846521
165.606 -0.0850495 -0.834735
165.944 -0.0993728 -0.833389
166.282 -0.103589 -0.82521
166.62 -0.113251 -0.82791
166.958 -0.136228 -0.823279
167.296 -0.157485 -0.816048
167.634 -0.149845 -0.807041
167.972 -0.166424 -0.798941
168.31 -0.169667 -0.792851
168.648 -0.182268 -0.79934
168.986 -0.193114 -0.78523
169.324 -0.204882 -0.776521
169.662 -0.220302 -0.776537
170 -0.218738 -0.779477
