! Touchstone file generated by AntScopeKit
# MHz S RI R 50
! Format: Frequency S-real S-imaginary (normalized to 50 Ohm)
1 0.987658 -0.129046
1.338 0.981676 -0.16908
1.676 0.974261 -0.210545
2.014 0.968601 -0.248619
2.352 0.957722 -0.287695
2.69 0.944985 -0.327113
3.028 0.92939 -0.369099
3.366 0.916133 -0.400873
3.704 0.898204 -0.43958
4.042 0.878545 -0.477659
4.38 0.856942 -0.515413
4.718 0.83813 -0.545471
5.056 0.813161 -0.582039
5.394 0.790985 -0.611835
5.732 0.766382 -0.642385
6.07 0.742041 -0.670355
6.408 0.713693 -0.700459
6.746 0.683386 -0.730057
7.084 0.654237 -0.756289
7.422 0.624208 -0.781258
7.76 0.573909 -0.818919
8.098 0.555856 -0.831279
8.436 0.525824 -0.850593
8.774 0.488677 -0.872465
9.112 0.450757 -0.887003
9.45 0.413022 -0.906537
9.788 0.373972 -0.916573
10.126 0.330796 -0.93129
10.464 0.274698 -0.930629
10.802 0.255193 -0.945716
11.14 0.218468 -0.95476
11.478 0.174722 -0.9533
11.816 0.13343 -0.957936
12.154 0.0958576 -0.955362
12.492 0.0569366 -0.95235
12.83 0.0175179 -0.949953
13.168 -0.0341019 -0.970858
13.506 -0.0617931 -0.940769
13.844 -0.0911931 -0.929482
14.182 -0.125825 -0.923415
14.52 -0.154318 -0.91614
14.858 -0.193971 -0.902908
15.196 -0.225499 -0.892933
15.534 -0.255427 -0.881828
15.872 -0.312327 -0.85353
16.21 -0.324617 -0.861494
16.548 -0.358962 -0.857569
16.886 -0.382792 -0.835101
17.224 -0.416396 -0.812262
17.562 -0.443849 -0.798213
17.9 -0.473736 -0.782494
18.238 -0.506782 -0.761601
18.576 -0.547054 -0.715032
18.914 -0.563069 -0.721458
19.252 -0.592089 -0.699856
19.59 -0.619023 -0.672034
19.928 -0.637754 -0.646916
20.266 -0.677011 -0.61901
20.604 -0.694504 -0.592321
20.942 -0.723231 -0.558038
21.28 -0.721842 -0.562482
21.618 -0.765395 -0.497451
21.956 -0.78334 -0.464621
22.294 -0.811935 -0.433839
22.632 -0.832737 -0.393761
22.97 -0.84298 -0.363108
23.308 -0.860101 -0.328572
23.646 -0.872323 -0.294564
23.984 -0.855238 -0.262025
24.322 -0.893204 -0.212613
24.66 -0.900828 -0.176605
24.998 -0.903805 -0.137426
25.336 -0.903358 -0.0936464
25.674 -0.916312 -0.0514206
26.012 -0.922363 -0.0137576
26.35 -0.916843 0.0297749
26.688 -0.890971 0.07146
27.026 -0.910503 0.106088
27.364 -0.908017 0.146446
27.702 -0.90158 0.186171
28.04 -0.895509 0.22035
28.378 -0.880793 0.261078
28.716 -0.868287 0.298359
29.054 -0.854425 0.332368
29.392 -0.84863 0.398394
29.73 -0.821532 0.403817
30.068 -0.797682 0.435465
30.406 -0.776098 0.462894
30.744 -0.763809 0.496714
31.082 -0.726855 0.524595
31.42 -0.705593 0.548423
31.758 -0.676817 0.582816
32.096 -0.67882 0.616188
32.434 -0.61978 0.630134
32.772 -0.590584 0.644653
33.11 -0.566608 0.672627
33.448 -0.529436 0.688673
33.786 -0.505887 0.704541
34.124 -0.47702 0.728403
34.462 -0.448883 0.737547
34.8 -0.38707 0.758386
35.138 -0.382669 0.768079
35.476 -0.354437 0.781419
35.814 -0.321591 0.793547
36.152 -0.283048 0.807793
36.49 -0.252358 0.812095
36.828 -0.219085 0.822474
37.166 -0.186266 0.831195
37.504 -0.128816 0.840604
37.842 -0.119265 0.834196
38.18 -0.0838041 0.840256
38.518 -0.0496448 0.845643
38.856 -0.0185059 0.844851
39.194 0.0160665 0.843287
39.532 0.0516362 0.846366
39.87 0.0859959 0.84134
40.208 0.13113 0.821464
40.546 0.15505 0.83439
40.884 0.187021 0.818974
41.222 0.223994 0.815605
41.56 0.257682 0.814244
41.898 0.285821 0.797034
42.236 0.318419 0.780674
42.574 0.349084 0.77203
42.912 0.356829 0.744511
43.25 0.412732 0.736909
43.588 0.436615 0.722682
43.926 0.467583 0.7014
44.264 0.500044 0.683042
44.602 0.523211 0.662467
44.94 0.543874 0.634327
45.278 0.572077 0.613683
45.616 0.567726 0.585149
45.954 0.613273 0.565787
46.292 0.63321 0.534878
46.63 0.652928 0.512404
46.968 0.677183 0.480636
47.306 0.697028 0.448967
47.644 0.708259 0.414976
47.982 0.724197 0.387399
48.32 0.714209 0.361866
48.658 0.752009 0.318848
48.996 0.761619 0.284174
49.334 0.778122 0.251531
49.672 0.78631 0.215081
50.01 0.788852 0.182757
50.348 0.794875 0.149033
50.686 0.801704 0.119963
51.024 0.80115 0.0647466
51.362 0.808523 0.055134
51.7 0.804712 0.0228693
52.038 0.809135 -0.00994103
52.376 0.810454 -0.0433253
52.714 0.797682 -0.0715922
53.052 0.800242 -0.10076
53.39 0.794004 -0.132696
53.728 0.80726 -0.174968
54.066 0.778761 -0.199072
54.404 0.766141 -0.23624
54.742 0.752727 -0.265584
55.08 0.734252 -0.294765
55.418 0.720887 -0.327667
55.756 0.708101 -0.359556
56.094 0.681727 -0.390591
56.432 0.674676 -0.40965
56.77 0.625908 -0.451155
57.108 0.596233 -0.478392
57.446 0.559253 -0.503971
57.784 0.523594 -0.527118
58.122 0.481898 -0.546692
58.46 0.445148 -0.560828
58.798 0.397865 -0.576872
59.136 0.370432 -0.58209
59.474 0.308392 -0.589149
59.812 0.26664 -0.594441
60.15 0.218513 -0.595285
60.488 0.170278 -0.592843
60.826 0.122852 -0.579869
61.164 0.0788724 -0.561777
61.502 0.0375187 -0.538393
61.84 -0.01367 -0.498809
62.178 -0.0351689 -0.480073
62.516 -0.0633112 -0.446088
62.854 -0.0866166 -0.405446
63.192 -0.098454 -0.362315
63.53 -0.107032 -0.325679
63.868 -0.106593 -0.28634
64.206 -0.101105 -0.250656
64.544 -0.0891384 -0.215756
64.882 -0.0791179 -0.197014
65.22 -0.0705189 -0.174657
65.558 -0.0622734 -0.146891
65.896 -0.0493469 -0.115268
66.234 -0.0307544 -0.0797164
66.572 0.00401135 -0.0458229
66.91 0.0491015 -0.018026
67.248 0.109248 -0.00275132
67.586 0.168607 -0.00763422
67.924 0.228033 -0.0291083
68.262 0.27424 -0.064958
68.6 0.315116 -0.10771
68.938 0.34021 -0.152109
69.276 0.354819 -0.204851
69.614 0.364512 -0.253122
69.952 0.36448 -0.308796
70.29 0.354005 -0.345053
70.628 0.341665 -0.382581
70.966 0.32535 -0.418623
71.304 0.308389 -0.461203
71.642 0.289195 -0.496423
71.98 0.259022 -0.529458
72.318 0.233586 -0.562184
72.656 0.186673 -0.591902
72.994 0.162782 -0.618794
73.332 0.120464 -0.640222
73.67 0.0806851 -0.659083
74.008 0.0358959 -0.675528
74.346 -0.00466873 -0.677587
74.684 -0.0482651 -0.682628
75.022 -0.0896173 -0.681399
75.36 -0.140295 -0.694414
75.698 -0.165312 -0.669469
76.036 -0.201621 -0.659486
76.374 -0.238699 -0.6567
76.712 -0.272468 -0.642105
77.05 -0.31243 -0.634504
77.388 -0.345867 -0.62
77.726 -0.379883 -0.600722
78.064 -0.392035 -0.577608
78.402 -0.436776 -0.56235
78.74 -0.467288 -0.543721
79.078 -0.489454 -0.519028
79.416 -0.50743 -0.495516
79.754 -0.533581 -0.479093
80.092 -0.560066 -0.454583
80.43 -0.581097 -0.432297
80.768 -0.589601 -0.391321
81.106 -0.617781 -0.376002
81.444 -0.638185 -0.348951
81.782 -0.649878 -0.32069
82.12 -0.668603 -0.293755
82.458 -0.675258 -0.264681
82.796 -0.689105 -0.234171
83.134 -0.697937 -0.204858
83.472 -0.708916 -0.158505
83.81 -0.714927 -0.143385
84.148 -0.720738 -0.107476
84.486 -0.729076 -0.0757527
84.824 -0.730759 -0.0531045
85.162 -0.73133 -0.0101397
85.5 -0.730513 0.0248031
85.838 -0.729929 0.0534172
86.176 -0.73 0.102461
86.514 -0.719402 0.115745
86.852 -0.716144 0.146146
87.19 -0.702393 0.173298
87.528 -0.688515 0.203905
87.866 -0.682034 0.228668
88.204 -0.673857 0.254224
88.542 -0.65987 0.279328
88.88 -0.657999 0.287599
89.218 -0.633917 0.325387
89.556 -0.623442 0.344834
89.894 -0.603991 0.367854
90.232 -0.582366 0.384237
90.57 -0.571082 0.410575
90.908 -0.552346 0.425046
91.246 -0.533477 0.442485
91.584 -0.500428 0.459074
91.922 -0.497938 0.472362
92.26 -0.480155 0.487571
92.598 -0.46383 0.497457
92.936 -0.442327 0.511197
93.274 -0.424481 0.527222
93.612 -0.408939 0.536169
93.95 -0.387611 0.550862
94.288 -0.356291 0.555021
94.626 -0.347103 0.575581
94.964 -0.322336 0.588648
95.302 -0.298832 0.594849
95.64 -0.275613 0.598802
95.978 -0.25172 0.612657
96.316 -0.228665 0.619658
96.654 -0.200083 0.628527
96.992 -0.190843 0.64431
97.33 -0.149884 0.641354
97.668 -0.124403 0.651908
98.006 -0.0946143 0.652685
98.344 -0.0643181 0.656601
98.682 -0.0397798 0.65778
99.02 -0.00569065 0.660451
99.358 0.0181614 0.660163
99.696 0.0476262 0.647143
100.034 0.0751469 0.654153
100.372 0.101852 0.649169
100.71 0.129501 0.648748
101.048 0.161347 0.644152
101.386 0.185078 0.637656
101.724 0.208163 0.627779
102.062 0.241253 0.621867
102.4 0.25874 0.625844
102.738 0.289315 0.602574
103.076 0.317752 0.594317
103.414 0.339522 0.58078
103.752 0.364451 0.569788
104.09 0.384065 0.555578
104.428 0.406619 0.540635
104.766 0.428992 0.527408
105.104 0.456088 0.525748
105.442 0.472852 0.495739
105.78 0.495764 0.485868
106.118 0.511967 0.467148
106.456 0.533042 0.450398
106.794 0.551041 0.430988
107.132 0.569307 0.412446
107.47 0.584028 0.394217
107.808 0.598415 0.388965
108.146 0.618162 0.353862
108.484 0.639175 0.334471
108.822 0.652729 0.309299
109.16 0.664203 0.284627
109.498 0.677891 0.261154
109.836 0.684759 0.235834
110.174 0.699383 0.213932
110.512 0.723759 0.181413
110.85 0.721037 0.154641
111.188 0.731443 0.130109
111.526 0.733898 0.107787
111.864 0.743245 0.0797444
112.202 0.74673 0.0540876
112.54 0.750306 0.0231769
112.878 0.75036 -0.00483363
113.216 0.734268 -0.0300232
113.554 0.752519 -0.0614207
113.892 0.757497 -0.0859015
114.23 0.749925 -0.114457
114.568 0.744419 -0.147178
114.906 0.74063 -0.171238
115.244 0.740045 -0.202597
115.582 0.724656 -0.230698
115.92 0.725153 -0.269598
116.258 0.708543 -0.282154
116.596 0.698924 -0.304945
116.934 0.686147 -0.336033
117.272 0.674284 -0.363671
117.61 0.658201 -0.385627
117.948 0.633423 -0.414199
118.286 0.627788 -0.432434
118.624 0.613158 -0.463802
118.962 0.585875 -0.473088
119.3 0.562616 -0.495737
119.638 0.535841 -0.515722
119.976 0.527962 -0.525065
120.314 0.490445 -0.55263
120.652 0.464992 -0.573399
120.99 0.446491 -0.582275
121.328 0.423007 -0.608044
121.666 0.388156 -0.607478
122.004 0.366092 -0.615714
122.342 0.340501 -0.631858
122.68 0.310486 -0.638019
123.018 0.281346 -0.647682
123.356 0.250352 -0.647186
123.694 0.221803 -0.662345
124.032 0.186072 -0.671725
124.37 0.166918 -0.660125
124.708 0.135611 -0.669034
125.046 0.100883 -0.668941
125.384 0.0802586 -0.67125
125.722 0.0421698 -0.666247
126.06 0.0186452 -0.663665
126.398 -0.0160937 -0.661168
126.736 -0.0353825 -0.661485
127.074 -0.0671021 -0.644738
127.412 -0.0937104 -0.646307
127.75 -0.12344 -0.63334
128.088 -0.150533 -0.619995
128.426 -0.175166 -0.613141
128.764 -0.19347 -0.606095
129.102 -0.223638 -0.592792
129.44 -0.239765 -0.569647
129.778 -0.267186 -0.564149
130.116 -0.290993 -0.560865
130.454 -0.312874 -0.543637
130.792 -0.323281 -0.534812
131.13 -0.349225 -0.515735
131.468 -0.364787 -0.499504
131.806 -0.385315 -0.478339
132.144 -0.389036 -0.463041
132.482 -0.417041 -0.446906
132.82 -0.438548 -0.433345
133.158 -0.454203 -0.412183
133.496 -0.471205 -0.392496
133.834 -0.481332 -0.376113
134.172 -0.497376 -0.365656
134.51 -0.506374 -0.349875
134.848 -0.519734 -0.316219
135.186 -0.52708 -0.309436
135.524 -0.546198 -0.288374
135.862 -0.550905 -0.267603
136.2 -0.560067 -0.243537
136.538 -0.574784 -0.220987
136.876 -0.582125 -0.200526
137.214 -0.587902 -0.181477
137.552 -0.5841 -0.151747
137.89 -0.594183 -0.134903
138.228 -0.60068 -0.111236
138.566 -0.605861 -0.0827502
138.904 -0.606775 -0.0681225
139.242 -0.61212 -0.0378208
139.58 -0.619518 -0.00838081
139.918 -0.616932 0.0134992
140.256 -0.62436 0.0336147
140.594 -0.620217 0.0685157
140.932 -0.613663 0.0929212
141.27 -0.615735 0.121159
141.608 -0.616514 0.150142
141.946 -0.60917 0.177425
142.284 -0.605775 0.206779
142.622 -0.597994 0.236504
142.96 -0.579176 0.261602
143.298 -0.583385 0.288768
143.636 -0.576103 0.321242
143.974 -0.560757 0.348667
144.312 -0.548839 0.367142
144.65 -0.540145 0.402811
144.988 -0.522978 0.436811
145.326 -0.511221 0.462289
145.664 -0.492222 0.473661
146.002 -0.475454 0.508695
146.34 -0.45609 0.540214
146.678 -0.440471 0.562115
147.016 -0.415424 0.581117
147.354 -0.40801 0.601403
147.692 -0.378888 0.627194
148.03 -0.355667 0.650212
148.368 -0.350448 0.667293
148.706 -0.315029 0.681544
149.044 -0.295591 0.694226
149.382 -0.266872 0.717605
149.72 -0.241683 0.73449
150.058 -0.219138 0.74124
150.396 -0.19149 0.756728
150.734 -0.162899 0.769305
151.072 -0.140145 0.786708
151.41 -0.0987394 0.781948
151.748 -0.0821611 0.785345
152.086 -0.0412202 0.792744
152.424 -0.00318654 0.79008
152.762 0.0164439 0.787677
153.1 0.0376504 0.786628
153.438 0.0723177 0.784888
153.776 0.102893 0.789787
154.114 0.123328 0.774483
154.452 0.149295 0.762491
154.79 0.184549 0.759413
155.128 0.199394 0.752853
155.466 0.234812 0.73915
155.804 0.259043 0.727952
156.142 0.282612 0.715055
156.48 0.295635 0.699217
156.818 0.329604 0.682064
157.156 0.361151 0.665313
157.494 0.378242 0.642732
157.832 0.400114 0.628907
158.17 0.423634 0.613049
158.508 0.442936 0.584151
158.846 0.461927 0.556051
159.184 0.491617 0.550361
159.522 0.499461 0.515704
159.86 0.51757 0.486907
160.198 0.531318 0.46726
160.536 0.542574 0.445054
160.874 0.555895 0.406681
161.212 0.571082 0.374625
161.55 0.577636 0.346746
161.888 0.585049 0.340578
162.226 0.597673 0.290655
162.564 0.610628 0.2718
162.902 0.620123 0.242551
163.24 0.614391 0.193837
163.578 0.626311 0.17809
163.916 0.623484 0.135926
164.254 0.632825 0.116163
164.592 0.642422 0.0791225
164.93 0.62318 0.0459128
165.268 0.630977 0.0171307
165.606 0.618883 -0.0207823
165.944 0.620922 -0.0499723
166.282 0.607048 -0.0774172
166.62 0.612497 -0.10173
166.958 0.595387 -0.142667
167.296 0.580409 -0.16989
167.634 0.582076 -0.194632
167.972 0.570634 -0.222157
168.31 0.554342 -0.253434
168.648 0.548691 -0.267281
168.986 0.533975 -0.308196
169.324 0.519913 -0.328813
169.662 0.509806 -0.352256
170 0.4806 -0.384982
