! Touchstone file generated by AntScopeKit
# MHz S RI R 50
! Format: Frequency S-real S-imaginary (normalized to 50 Ohm)
1 0.990232 -0.128356
1.338 0.982655 -0.16928
1.676 0.977618 -0.210388
2.014 0.968467 -0.24914
2.352 0.955371 -0.295408
2.69 0.944957 -0.327194
3.028 0.92961 -0.368545
3.366 0.916976 -0.398943
3.704 0.900909 -0.434008
4.042 0.877634 -0.479332
4.38 0.859601 -0.510966
4.718 0.836456 -0.548033
5.056 0.820421 -0.57176
5.394 0.788728 -0.614743
5.732 0.764539 -0.644577
6.07 0.736532 -0.676403
6.408 0.71061 -0.703586
6.746 0.682779 -0.730625
7.084 0.652141 -0.758098
7.422 0.61844 -0.785832
7.76 0.606224 -0.795294
8.098 0.556883 -0.830591
8.436 0.521585 -0.844552
8.774 0.484415 -0.87002
9.112 0.450913 -0.88367
9.45 0.413645 -0.893015
9.788 0.373964 -0.902463
10.126 0.338699 -0.913966
10.464 0.288745 -0.912932
10.802 0.263186 -0.930509
11.14 0.227901 -0.933537
11.478 0.189417 -0.937297
11.816 0.157265 -0.939551
12.154 0.113124 -0.942976
12.492 0.0775059 -0.940805
12.83 0.0428063 -0.94258
13.168 0.000199309 -0.970012
13.506 -0.0335609 -0.941734
13.844 -0.0674799 -0.938173
14.182 -0.103842 -0.937806
14.52 -0.131367 -0.928073
14.858 -0.174428 -0.924657
15.196 -0.210902 -0.917964
15.534 -0.246901 -0.905773
15.872 -0.267 -0.911898
16.21 -0.315482 -0.880255
16.548 -0.361807 -0.882787
16.886 -0.392119 -0.857477
17.224 -0.424249 -0.813427
17.562 -0.445649 -0.802334
17.9 -0.479223 -0.781876
18.238 -0.5097 -0.762297
18.576 -0.55423 -0.740934
18.914 -0.565998 -0.715563
19.252 -0.591944 -0.696373
19.59 -0.61784 -0.671488
19.928 -0.642899 -0.642416
20.266 -0.67543 -0.616973
20.604 -0.69598 -0.590088
20.942 -0.720255 -0.556156
21.28 -0.744561 -0.511004
21.618 -0.763912 -0.49695
21.956 -0.785437 -0.462441
22.294 -0.803588 -0.432278
22.632 -0.833243 -0.39434
22.97 -0.838825 -0.363197
23.308 -0.858176 -0.327818
23.646 -0.868309 -0.292396
23.984 -0.867505 -0.231293
24.322 -0.892742 -0.212861
24.66 -0.897561 -0.175892
24.998 -0.90539 -0.133812
25.336 -0.90845 -0.105225
25.674 -0.914039 -0.0535838
26.012 -0.916757 -0.0149571
26.35 -0.915304 0.0245755
26.688 -0.91482 0.0413096
27.026 -0.915272 0.100676
27.364 -0.906638 0.143702
27.702 -0.90008 0.181292
28.04 -0.888797 0.21706
28.378 -0.88452 0.260983
28.716 -0.872696 0.29351
29.054 -0.85982 0.331309
29.392 -0.824287 0.356066
29.73 -0.824548 0.398304
30.068 -0.799339 0.430101
30.406 -0.779502 0.464916
30.744 -0.747222 0.496741
31.082 -0.737723 0.523957
31.42 -0.710271 0.549708
31.758 -0.68037 0.583003
32.096 -0.664974 0.625206
32.434 -0.626964 0.624132
32.772 -0.599994 0.650756
33.11 -0.564444 0.671994
33.448 -0.54157 0.687015
33.786 -0.506532 0.705769
34.124 -0.475579 0.721999
34.462 -0.450864 0.740953
34.8 -0.417903 0.7287
35.138 -0.385605 0.769895
35.476 -0.355988 0.784051
35.814 -0.319747 0.794286
36.152 -0.282173 0.809462
36.49 -0.250635 0.814612
36.828 -0.221238 0.821875
37.166 -0.186062 0.829816
37.504 -0.177696 0.851109
37.842 -0.118633 0.840088
38.18 -0.0844935 0.844204
38.518 -0.0549837 0.844613
38.856 -0.0196639 0.838922
39.194 0.0165894 0.845385
39.532 0.0521009 0.848362
39.87 0.0892138 0.840668
40.208 0.141764 0.837871
40.546 0.152622 0.829591
40.884 0.186153 0.826392
41.222 0.221384 0.818536
41.56 0.245074 0.805406
41.898 0.284017 0.794638
42.236 0.319133 0.790483
42.574 0.347057 0.766743
42.912 0.401919 0.751707
43.25 0.404361 0.739571
43.588 0.433785 0.720085
43.926 0.465779 0.701121
44.264 0.487876 0.68861
44.602 0.518347 0.661835
44.94 0.543688 0.639057
45.278 0.566952 0.614591
45.616 0.615299 0.594739
45.954 0.613332 0.565956
46.292 0.635331 0.540757
46.63 0.651409 0.515653
46.968 0.673683 0.483407
47.306 0.688416 0.457512
47.644 0.700911 0.42413
47.982 0.72555 0.395055
48.32 0.727104 0.381191
48.658 0.752549 0.330214
48.996 0.766209 0.29488
49.334 0.776159 0.262716
49.672 0.782687 0.23297
50.01 0.791608 0.195798
50.348 0.804119 0.164196
50.686 0.804233 0.128681
51.024 0.800059 0.074552
51.362 0.816097 0.0634059
51.7 0.816326 0.0290412
52.038 0.814586 -0.0011241
52.376 0.818831 -0.0434108
52.714 0.8117 -0.0676145
53.052 0.804969 -0.100147
53.39 0.799956 -0.132861
53.728 0.815088 -0.173189
54.066 0.783279 -0.197719
54.404 0.767159 -0.229337
54.742 0.757805 -0.261546
55.08 0.744621 -0.293744
55.418 0.727144 -0.327481
55.756 0.710142 -0.357457
56.094 0.6834 -0.38564
56.432 0.679309 -0.404099
56.77 0.630204 -0.446096
57.108 0.603188 -0.473544
57.446 0.565005 -0.497342
57.784 0.534013 -0.522617
58.122 0.493537 -0.542412
58.46 0.454062 -0.559647
58.798 0.410433 -0.576972
59.136 0.387495 -0.587322
59.474 0.321298 -0.595722
59.812 0.274673 -0.601272
60.15 0.226178 -0.60137
60.488 0.182475 -0.591807
60.826 0.12938 -0.584222
61.164 0.0823213 -0.565672
61.502 0.0437768 -0.543771
61.84 0.000324291 -0.528666
62.178 -0.0277529 -0.486125
62.516 -0.0577676 -0.448755
62.854 -0.0817588 -0.41288
63.192 -0.100118 -0.370255
63.53 -0.107967 -0.326305
63.868 -0.103946 -0.284624
64.206 -0.0928428 -0.249289
64.544 -0.0853048 -0.21534
64.882 -0.0650352 -0.195457
65.22 -0.0532564 -0.174149
65.558 -0.0404184 -0.153552
65.896 -0.0256645 -0.129763
66.234 -0.00678154 -0.102295
66.572 0.0219621 -0.0758566
66.91 0.0599549 -0.0529439
67.248 0.106101 -0.039303
67.586 0.162468 -0.0410699
67.924 0.215039 -0.0583904
68.262 0.257582 -0.0897504
68.6 0.291051 -0.128697
68.938 0.32013 -0.169523
69.276 0.338337 -0.214656
69.614 0.34292 -0.261541
69.952 0.334636 -0.311281
70.29 0.335633 -0.350986
70.628 0.322902 -0.393648
70.966 0.309316 -0.432735
71.304 0.288922 -0.469731
71.642 0.26353 -0.502187
71.98 0.239525 -0.532952
72.318 0.207969 -0.560419
72.656 0.186761 -0.574308
72.994 0.138679 -0.61406
73.332 0.100534 -0.628003
73.67 0.0630327 -0.645932
74.008 0.0259951 -0.661407
74.346 -0.0153039 -0.662129
74.684 -0.0523066 -0.668428
75.022 -0.0960357 -0.674191
75.36 -0.147828 -0.687593
75.698 -0.174518 -0.66443
76.036 -0.212803 -0.654857
76.374 -0.249147 -0.648865
76.712 -0.28344 -0.644113
77.05 -0.32241 -0.626747
77.388 -0.360044 -0.609612
77.726 -0.388702 -0.592254
78.064 -0.404264 -0.578072
78.402 -0.443714 -0.552102
78.74 -0.47307 -0.52937
79.078 -0.494861 -0.511197
79.416 -0.519175 -0.485984
79.754 -0.538823 -0.465676
80.092 -0.561852 -0.44009
80.43 -0.57936 -0.417065
80.768 -0.616518 -0.398049
81.106 -0.619116 -0.367465
81.444 -0.632886 -0.338268
81.782 -0.652307 -0.314193
82.12 -0.663379 -0.290293
82.458 -0.678225 -0.254524
82.796 -0.692947 -0.222412
83.134 -0.697948 -0.194952
83.472 -0.706093 -0.142939
83.81 -0.714758 -0.133544
84.148 -0.722387 -0.0968997
84.486 -0.725554 -0.0665016
84.824 -0.731543 -0.0283829
85.162 -0.727698 -0.00385394
85.5 -0.730665 0.0308388
85.838 -0.724832 0.0638718
86.176 -0.739278 0.0837681
86.514 -0.71421 0.122734
86.852 -0.711978 0.155722
87.19 -0.700578 0.181291
87.528 -0.682713 0.207876
87.866 -0.681689 0.234724
88.204 -0.66528 0.259527
88.542 -0.656634 0.285762
88.88 -0.651939 0.297507
89.218 -0.6295 0.333862
89.556 -0.614631 0.354846
89.894 -0.597661 0.378031
90.232 -0.572555 0.395019
90.57 -0.559211 0.416685
90.908 -0.540319 0.434803
91.246 -0.522922 0.450432
91.584 -0.519867 0.460332
91.922 -0.485026 0.479459
92.26 -0.464269 0.489276
92.598 -0.44685 0.504908
92.936 -0.429154 0.510298
93.274 -0.406633 0.5237
93.612 -0.388559 0.538042
93.95 -0.367922 0.542419
94.288 -0.349785 0.541654
94.626 -0.329939 0.562886
94.964 -0.310692 0.571745
95.302 -0.288564 0.58617
95.64 -0.269989 0.590589
95.978 -0.243612 0.604238
96.316 -0.220413 0.609471
96.654 -0.194162 0.619053
96.992 -0.158088 0.62938
97.33 -0.145646 0.631613
97.668 -0.118464 0.632463
98.006 -0.0938056 0.639927
98.344 -0.0627062 0.644324
98.682 -0.0393512 0.648489
99.02 -0.0100074 0.646502
99.358 0.0154203 0.64881
99.696 0.0482495 0.662507
100.034 0.071196 0.648041
100.372 0.0969118 0.642602
100.71 0.125011 0.642305
101.048 0.153881 0.634826
101.386 0.178403 0.627573
101.724 0.202324 0.622733
102.062 0.230312 0.614326
102.4 0.259758 0.591483
102.738 0.283783 0.598111
103.076 0.302336 0.589131
103.414 0.331608 0.576207
103.752 0.35681 0.564024
104.09 0.378831 0.554279
104.428 0.399877 0.542835
104.766 0.423089 0.524226
105.104 0.45594 0.512164
105.442 0.466148 0.497959
105.78 0.482659 0.480984
106.118 0.503949 0.464213
106.456 0.522148 0.452279
106.794 0.541436 0.432621
107.132 0.560643 0.417603
107.47 0.576 0.399697
107.808 0.595949 0.394787
108.146 0.612789 0.360334
108.484 0.633378 0.341276
108.822 0.646723 0.316147
109.16 0.66013 0.289966
109.498 0.672382 0.269977
109.836 0.682145 0.245074
110.174 0.696054 0.214186
110.512 0.70804 0.208704
110.85 0.715195 0.165123
111.188 0.729916 0.13952
111.526 0.734732 0.11228
111.864 0.738816 0.0844509
112.202 0.746968 0.0605379
112.54 0.744848 0.0304523
112.878 0.75056 0.00558855
113.216 0.751007 -0.0157521
113.554 0.749828 -0.0588121
113.892 0.757724 -0.0845438
114.23 0.751122 -0.109424
114.568 0.74692 -0.144144
114.906 0.747784 -0.17023
115.244 0.74254 -0.193731
115.582 0.738364 -0.224546
115.92 0.709127 -0.255999
116.258 0.71296 -0.284505
116.596 0.703377 -0.302831
116.934 0.6965 -0.33502
117.272 0.678316 -0.365857
117.61 0.661254 -0.387528
117.948 0.640784 -0.413906
118.286 0.626345 -0.435282
118.624 0.590906 -0.455097
118.962 0.58826 -0.479615
119.3 0.563719 -0.500217
119.638 0.544235 -0.519445
119.976 0.516214 -0.534348
120.314 0.491012 -0.549713
120.652 0.46584 -0.570424
120.99 0.437784 -0.582244
121.328 0.431876 -0.590009
121.666 0.392217 -0.602628
122.004 0.366298 -0.615416
122.342 0.335274 -0.625234
122.68 0.310603 -0.640425
123.018 0.272161 -0.639385
123.356 0.253526 -0.646792
123.694 0.216441 -0.653108
124.032 0.193535 -0.643632
124.37 0.165957 -0.661006
124.708 0.135224 -0.664682
125.046 0.104523 -0.658078
125.384 0.0774599 -0.655576
125.722 0.0478464 -0.65937
126.06 0.0135511 -0.656212
126.398 -0.0123666 -0.652812
126.736 -0.0506644 -0.649092
127.074 -0.0614845 -0.642872
127.412 -0.0896194 -0.641863
127.75 -0.121048 -0.632228
128.088 -0.147108 -0.625214
128.426 -0.167171 -0.614635
128.764 -0.189304 -0.600452
129.102 -0.215381 -0.595046
129.44 -0.252725 -0.587381
129.778 -0.264813 -0.570557
130.116 -0.282269 -0.555829
130.454 -0.303775 -0.547294
130.792 -0.325117 -0.524539
131.13 -0.347947 -0.51814
131.468 -0.36395 -0.500279
131.806 -0.383877 -0.487539
132.144 -0.404917 -0.479121
132.482 -0.417858 -0.451139
132.82 -0.436838 -0.437995
133.158 -0.452203 -0.421669
133.496 -0.463262 -0.408576
133.834 -0.484404 -0.386888
134.172 -0.492803 -0.358994
134.51 -0.502774 -0.34989
134.848 -0.515261 -0.334749
135.186 -0.538347 -0.310172
135.524 -0.545658 -0.292693
135.862 -0.555835 -0.265171
136.2 -0.570206 -0.245229
136.538 -0.573756 -0.219033
136.876 -0.579076 -0.199558
137.214 -0.589377 -0.176494
137.552 -0.607777 -0.155889
137.89 -0.60392 -0.131196
138.228 -0.609439 -0.103789
138.566 -0.607303 -0.081911
138.904 -0.620746 -0.0535371
139.242 -0.613152 -0.0330917
139.58 -0.622856 -0.00551029
139.918 -0.619005 0.0220685
140.256 -0.619194 0.0586918
140.594 -0.616617 0.0717031
140.932 -0.617415 0.102465
141.27 -0.611738 0.128176
141.608 -0.603903 0.148333
141.946 -0.603898 0.181018
142.284 -0.597091 0.207128
142.622 -0.595615 0.236491
142.96 -0.597725 0.263749
143.298 -0.574549 0.290139
143.636 -0.568721 0.319022
143.974 -0.556742 0.344732
144.312 -0.543385 0.378757
144.65 -0.533603 0.396099
144.988 -0.520049 0.428219
145.326 -0.505018 0.450994
145.664 -0.49984 0.465955
146.002 -0.479495 0.500838
146.34 -0.460911 0.519577
146.678 -0.441962 0.546571
147.016 -0.418607 0.579106
147.354 -0.411588 0.593588
147.692 -0.388492 0.616677
148.03 -0.367742 0.638248
148.368 -0.332233 0.667089
148.706 -0.325117 0.677161
149.044 -0.298444 0.699867
149.382 -0.273366 0.716289
149.72 -0.258982 0.719973
150.058 -0.225815 0.739286
150.396 -0.198424 0.758199
150.734 -0.171698 0.763847
151.072 -0.15257 0.786973
151.41 -0.113591 0.780507
151.748 -0.0878959 0.791645
152.086 -0.0594064 0.795262
152.424 -0.0268651 0.794095
152.762 -1.54244e-5 0.797579
153.1 0.0376107 0.806984
153.438 0.0651585 0.796837
153.776 0.0931908 0.803674
154.114 0.119294 0.783888
154.452 0.154044 0.78266
154.79 0.183291 0.76972
155.128 0.211311 0.76426
155.466 0.229962 0.748786
155.804 0.263113 0.734724
156.142 0.285794 0.724663
156.48 0.295612 0.708454
156.818 0.336205 0.686261
157.156 0.357528 0.672956
157.494 0.385578 0.656159
157.832 0.409611 0.636832
158.17 0.427247 0.608918
158.508 0.446168 0.588508
158.846 0.464287 0.558853
159.184 0.491248 0.559682
159.522 0.503144 0.508517
159.86 0.521184 0.494566
160.198 0.536499 0.460354
160.536 0.549005 0.448169
160.874 0.563621 0.405049
161.212 0.573431 0.388171
161.55 0.586044 0.349173
161.888 0.596922 0.327537
162.226 0.601528 0.300853
162.564 0.612366 0.264696
162.902 0.613483 0.226734
163.24 0.628389 0.199796
163.578 0.626911 0.177315
163.916 0.628102 0.140038
164.254 0.624006 0.104706
164.592 0.635511 0.0746282
164.93 0.625175 0.0424749
165.268 0.621557 0.0162437
165.606 0.619918 -0.0188277
165.944 0.614376 -0.0563814
166.282 0.611461 -0.0815248
166.62 0.612601 -0.106625
166.958 0.604579 -0.13009
167.296 0.594582 -0.162549
167.634 0.584306 -0.196188
167.972 0.572462 -0.227012
168.31 0.559552 -0.25362
168.648 0.561406 -0.272871
168.986 0.538183 -0.305076
169.324 0.5261 -0.331161
169.662 0.507717 -0.359778
170 0.508903 -0.385359
